********************************** N O D E S **********************************
*NODE, NSET=ALLNODES
    4489,    0.000000e+00,    2.000000e+01,   -1.000000e+01
    4490,    0.000000e+00,    2.000000e+01,    0.000000e+00
    4491,    0.000000e+00,    2.000000e+01,   -7.500000e+00
    4492,    0.000000e+00,    2.000000e+01,   -5.000000e+00
    4493,    0.000000e+00,    2.000000e+01,   -2.500000e+00
    4494,    1.000000e+01,    2.000000e+01,    0.000000e+00
    4495,    8.000000e+00,    2.000000e+01,    0.000000e+00
    4496,    6.000000e+00,    2.000000e+01,    0.000000e+00
    4497,    4.000000e+00,    2.000000e+01,    0.000000e+00
    4498,    2.000000e+00,    2.000000e+01,    0.000000e+00
    4499,    2.225209e+00,    2.000000e+01,   -9.749279e+00
    4500,    4.338837e+00,    2.000000e+01,   -9.009689e+00
    4501,    6.234898e+00,    2.000000e+01,   -7.818315e+00
    4502,    7.818315e+00,    2.000000e+01,   -6.234898e+00
    4503,    9.009689e+00,    2.000000e+01,   -4.338837e+00
    4504,    9.749279e+00,    2.000000e+01,   -2.225209e+00
    4505,    6.840806e+00,    2.000000e+01,   -5.309894e+00
    4506,    1.975763e+00,    2.000000e+01,   -7.049762e+00
    4507,    3.866234e+00,    2.000000e+01,   -6.482100e+00
    4508,    5.525158e+00,    2.000000e+01,   -5.824169e+00
    4509,    7.639957e+00,    2.000000e+01,   -2.024445e+00
    4510,    7.178946e+00,    2.000000e+01,   -3.870615e+00
    4511,    1.903308e+00,    2.000000e+01,   -4.640728e+00
    4512,    1.908332e+00,    2.000000e+01,   -2.295249e+00
    4513,    3.753719e+00,    2.000000e+01,   -4.285651e+00
    4514,    3.833892e+00,    2.000000e+01,   -2.139020e+00
    4515,    5.509063e+00,    2.000000e+01,   -3.978288e+00
    4516,    5.714397e+00,    2.000000e+01,   -2.015197e+00
    4517,    0.000000e+00,    4.180000e+01,   -1.000000e+01
    4518,    0.000000e+00,    2.128235e+01,   -1.000000e+01
    4519,    0.000000e+00,    2.256471e+01,   -1.000000e+01
    4520,    0.000000e+00,    2.384706e+01,   -1.000000e+01
    4521,    0.000000e+00,    2.512941e+01,   -1.000000e+01
    4522,    0.000000e+00,    2.641176e+01,   -1.000000e+01
    4523,    0.000000e+00,    2.769412e+01,   -1.000000e+01
    4524,    0.000000e+00,    2.897647e+01,   -1.000000e+01
    4525,    0.000000e+00,    3.025882e+01,   -1.000000e+01
    4526,    0.000000e+00,    3.154118e+01,   -1.000000e+01
    4527,    0.000000e+00,    3.282353e+01,   -1.000000e+01
    4528,    0.000000e+00,    3.410588e+01,   -1.000000e+01
    4529,    0.000000e+00,    3.538824e+01,   -1.000000e+01
    4530,    0.000000e+00,    3.667059e+01,   -1.000000e+01
    4531,    0.000000e+00,    3.795294e+01,   -1.000000e+01
    4532,    0.000000e+00,    3.923529e+01,   -1.000000e+01
    4533,    0.000000e+00,    4.051765e+01,   -1.000000e+01
    4534,    0.000000e+00,    4.180000e+01,    0.000000e+00
    4535,    0.000000e+00,    4.051765e+01,    0.000000e+00
    4536,    0.000000e+00,    3.923529e+01,    0.000000e+00
    4537,    0.000000e+00,    3.795294e+01,    0.000000e+00
    4538,    0.000000e+00,    3.667059e+01,    0.000000e+00
    4539,    0.000000e+00,    3.538824e+01,    0.000000e+00
    4540,    0.000000e+00,    3.410588e+01,    0.000000e+00
    4541,    0.000000e+00,    3.282353e+01,    0.000000e+00
    4542,    0.000000e+00,    3.154118e+01,    0.000000e+00
    4543,    0.000000e+00,    3.025882e+01,    0.000000e+00
    4544,    0.000000e+00,    2.897647e+01,    0.000000e+00
    4545,    0.000000e+00,    2.769412e+01,    0.000000e+00
    4546,    0.000000e+00,    2.641176e+01,    0.000000e+00
    4547,    0.000000e+00,    2.512941e+01,    0.000000e+00
    4548,    0.000000e+00,    2.384706e+01,    0.000000e+00
    4549,    0.000000e+00,    2.256471e+01,    0.000000e+00
    4550,    0.000000e+00,    2.128235e+01,    0.000000e+00
    4551,    0.000000e+00,    4.180000e+01,   -7.500000e+00
    4552,    0.000000e+00,    4.180000e+01,   -5.000000e+00
    4553,    0.000000e+00,    4.180000e+01,   -2.500000e+00
    4554,    0.000000e+00,    4.051765e+01,   -7.500000e+00
    4555,    0.000000e+00,    3.923529e+01,   -7.500000e+00
    4556,    0.000000e+00,    3.795294e+01,   -7.500000e+00
    4557,    0.000000e+00,    3.667059e+01,   -7.500000e+00
    4558,    0.000000e+00,    3.538824e+01,   -7.500000e+00
    4559,    0.000000e+00,    3.410588e+01,   -7.500000e+00
    4560,    0.000000e+00,    3.282353e+01,   -7.500000e+00
    4561,    0.000000e+00,    3.154118e+01,   -7.500000e+00
    4562,    0.000000e+00,    3.025882e+01,   -7.500000e+00
    4563,    0.000000e+00,    2.897647e+01,   -7.500000e+00
    4564,    0.000000e+00,    2.769412e+01,   -7.500000e+00
    4565,    0.000000e+00,    2.641176e+01,   -7.500000e+00
    4566,    0.000000e+00,    2.512941e+01,   -7.500000e+00
    4567,    0.000000e+00,    2.384706e+01,   -7.500000e+00
    4568,    0.000000e+00,    2.256471e+01,   -7.500000e+00
    4569,    0.000000e+00,    2.128235e+01,   -7.500000e+00
    4570,    0.000000e+00,    4.051765e+01,   -5.000000e+00
    4571,    0.000000e+00,    3.923529e+01,   -5.000000e+00
    4572,    0.000000e+00,    3.795294e+01,   -5.000000e+00
    4573,    0.000000e+00,    3.667059e+01,   -5.000000e+00
    4574,    0.000000e+00,    3.538824e+01,   -5.000000e+00
    4575,    0.000000e+00,    3.410588e+01,   -5.000000e+00
    4576,    0.000000e+00,    3.282353e+01,   -5.000000e+00
    4577,    0.000000e+00,    3.154118e+01,   -5.000000e+00
    4578,    0.000000e+00,    3.025882e+01,   -5.000000e+00
    4579,    0.000000e+00,    2.897647e+01,   -5.000000e+00
    4580,    0.000000e+00,    2.769412e+01,   -5.000000e+00
    4581,    0.000000e+00,    2.641176e+01,   -5.000000e+00
    4582,    0.000000e+00,    2.512941e+01,   -5.000000e+00
    4583,    0.000000e+00,    2.384706e+01,   -5.000000e+00
    4584,    0.000000e+00,    2.256471e+01,   -5.000000e+00
    4585,    0.000000e+00,    2.128235e+01,   -5.000000e+00
    4586,    0.000000e+00,    4.051765e+01,   -2.500000e+00
    4587,    0.000000e+00,    3.923529e+01,   -2.500000e+00
    4588,    0.000000e+00,    3.795294e+01,   -2.500000e+00
    4589,    0.000000e+00,    3.667059e+01,   -2.500000e+00
    4590,    0.000000e+00,    3.538824e+01,   -2.500000e+00
    4591,    0.000000e+00,    3.410588e+01,   -2.500000e+00
    4592,    0.000000e+00,    3.282353e+01,   -2.500000e+00
    4593,    0.000000e+00,    3.154118e+01,   -2.500000e+00
    4594,    0.000000e+00,    3.025882e+01,   -2.500000e+00
    4595,    0.000000e+00,    2.897647e+01,   -2.500000e+00
    4596,    0.000000e+00,    2.769412e+01,   -2.500000e+00
    4597,    0.000000e+00,    2.641176e+01,   -2.500000e+00
    4598,    0.000000e+00,    2.512941e+01,   -2.500000e+00
    4599,    0.000000e+00,    2.384706e+01,   -2.500000e+00
    4600,    0.000000e+00,    2.256471e+01,   -2.500000e+00
    4601,    0.000000e+00,    2.128235e+01,   -2.500000e+00
    4602,    1.000000e+01,    4.180000e+01,   -3.422888e-15
    4603,    1.000000e+01,    2.128235e+01,    5.889110e-16
    4604,    1.000000e+01,    2.256471e+01,    5.103896e-16
    4605,    1.000000e+01,    2.384706e+01,    4.318681e-16
    4606,    1.000000e+01,    2.512941e+01,    3.533466e-16
    4607,    1.000000e+01,    2.641176e+01,    2.748251e-16
    4608,    1.000000e+01,    2.769412e+01,    1.963037e-16
    4609,    1.000000e+01,    2.897647e+01,    1.177822e-16
    4610,    1.000000e+01,    3.025882e+01,    3.926074e-17
    4611,    1.000000e+01,    3.154118e+01,   -3.926074e-17
    4612,    1.000000e+01,    3.282353e+01,   -1.177822e-16
    4613,    1.000000e+01,    3.410588e+01,   -1.963037e-16
    4614,    1.000000e+01,    3.538824e+01,   -2.748251e-16
    4615,    1.000000e+01,    3.667059e+01,   -3.533466e-16
    4616,    1.000000e+01,    3.795294e+01,   -4.318681e-16
    4617,    1.000000e+01,    3.923529e+01,   -5.103896e-16
    4618,    1.000000e+01,    4.051765e+01,   -5.889110e-16
    4619,    8.000000e+00,    4.180000e+01,    0.000000e+00
    4620,    6.000000e+00,    4.180000e+01,    0.000000e+00
    4621,    4.000000e+00,    4.180000e+01,    0.000000e+00
    4622,    2.000000e+00,    4.180000e+01,    0.000000e+00
    4623,    2.000000e+00,    4.051765e+01,    0.000000e+00
    4624,    2.000000e+00,    3.923529e+01,    0.000000e+00
    4625,    2.000000e+00,    3.795294e+01,    0.000000e+00
    4626,    2.000000e+00,    3.667059e+01,    0.000000e+00
    4627,    2.000000e+00,    3.538824e+01,    0.000000e+00
    4628,    2.000000e+00,    3.410588e+01,    0.000000e+00
    4629,    2.000000e+00,    3.282353e+01,    0.000000e+00
    4630,    2.000000e+00,    3.154118e+01,    0.000000e+00
    4631,    2.000000e+00,    3.025882e+01,    0.000000e+00
    4632,    2.000000e+00,    2.897647e+01,    0.000000e+00
    4633,    2.000000e+00,    2.769412e+01,    0.000000e+00
    4634,    2.000000e+00,    2.641176e+01,    0.000000e+00
    4635,    2.000000e+00,    2.512941e+01,    0.000000e+00
    4636,    2.000000e+00,    2.384706e+01,    0.000000e+00
    4637,    2.000000e+00,    2.256471e+01,    0.000000e+00
    4638,    2.000000e+00,    2.128235e+01,    0.000000e+00
    4639,    4.000000e+00,    4.051765e+01,    0.000000e+00
    4640,    4.000000e+00,    3.923529e+01,    0.000000e+00
    4641,    4.000000e+00,    3.795294e+01,    0.000000e+00
    4642,    4.000000e+00,    3.667059e+01,    0.000000e+00
    4643,    4.000000e+00,    3.538824e+01,    0.000000e+00
    4644,    4.000000e+00,    3.410588e+01,    0.000000e+00
    4645,    4.000000e+00,    3.282353e+01,    0.000000e+00
    4646,    4.000000e+00,    3.154118e+01,    0.000000e+00
    4647,    4.000000e+00,    3.025882e+01,    0.000000e+00
    4648,    4.000000e+00,    2.897647e+01,    0.000000e+00
    4649,    4.000000e+00,    2.769412e+01,    0.000000e+00
    4650,    4.000000e+00,    2.641176e+01,    0.000000e+00
    4651,    4.000000e+00,    2.512941e+01,    0.000000e+00
    4652,    4.000000e+00,    2.384706e+01,    0.000000e+00
    4653,    4.000000e+00,    2.256471e+01,    0.000000e+00
    4654,    4.000000e+00,    2.128235e+01,    0.000000e+00
    4655,    6.000000e+00,    4.051765e+01,    0.000000e+00
    4656,    6.000000e+00,    3.923529e+01,    0.000000e+00
    4657,    6.000000e+00,    3.795294e+01,    0.000000e+00
    4658,    6.000000e+00,    3.667059e+01,    0.000000e+00
    4659,    6.000000e+00,    3.538824e+01,    0.000000e+00
    4660,    6.000000e+00,    3.410588e+01,    0.000000e+00
    4661,    6.000000e+00,    3.282353e+01,    0.000000e+00
    4662,    6.000000e+00,    3.154118e+01,    0.000000e+00
    4663,    6.000000e+00,    3.025882e+01,    0.000000e+00
    4664,    6.000000e+00,    2.897647e+01,    0.000000e+00
    4665,    6.000000e+00,    2.769412e+01,    0.000000e+00
    4666,    6.000000e+00,    2.641176e+01,    0.000000e+00
    4667,    6.000000e+00,    2.512941e+01,    0.000000e+00
    4668,    6.000000e+00,    2.384706e+01,    0.000000e+00
    4669,    6.000000e+00,    2.256471e+01,    0.000000e+00
    4670,    6.000000e+00,    2.128235e+01,    0.000000e+00
    4671,    8.000000e+00,    4.051765e+01,    0.000000e+00
    4672,    8.000000e+00,    3.923529e+01,    0.000000e+00
    4673,    8.000000e+00,    3.795294e+01,    0.000000e+00
    4674,    8.000000e+00,    3.667059e+01,    0.000000e+00
    4675,    8.000000e+00,    3.538824e+01,    0.000000e+00
    4676,    8.000000e+00,    3.410588e+01,    0.000000e+00
    4677,    8.000000e+00,    3.282353e+01,    0.000000e+00
    4678,    8.000000e+00,    3.154118e+01,    0.000000e+00
    4679,    8.000000e+00,    3.025882e+01,    0.000000e+00
    4680,    8.000000e+00,    2.897647e+01,    0.000000e+00
    4681,    8.000000e+00,    2.769412e+01,    0.000000e+00
    4682,    8.000000e+00,    2.641176e+01,    0.000000e+00
    4683,    8.000000e+00,    2.512941e+01,    0.000000e+00
    4684,    8.000000e+00,    2.384706e+01,    0.000000e+00
    4685,    8.000000e+00,    2.256471e+01,    0.000000e+00
    4686,    8.000000e+00,    2.128235e+01,    0.000000e+00
    4687,    9.749279e+00,    4.180000e+01,   -2.225209e+00
    4688,    9.009689e+00,    4.180000e+01,   -4.338837e+00
    4689,    7.818315e+00,    4.180000e+01,   -6.234898e+00
    4690,    6.234898e+00,    4.180000e+01,   -7.818315e+00
    4691,    4.338837e+00,    4.180000e+01,   -9.009689e+00
    4692,    2.225209e+00,    4.180000e+01,   -9.749279e+00
    4693,    2.225209e+00,    2.128235e+01,   -9.749279e+00
    4694,    2.225209e+00,    2.256471e+01,   -9.749279e+00
    4695,    2.225209e+00,    2.384706e+01,   -9.749279e+00
    4696,    2.225209e+00,    2.512941e+01,   -9.749279e+00
    4697,    2.225209e+00,    2.641176e+01,   -9.749279e+00
    4698,    2.225209e+00,    2.769412e+01,   -9.749279e+00
    4699,    2.225209e+00,    2.897647e+01,   -9.749279e+00
    4700,    2.225209e+00,    3.025882e+01,   -9.749279e+00
    4701,    2.225209e+00,    3.154118e+01,   -9.749279e+00
    4702,    2.225209e+00,    3.282353e+01,   -9.749279e+00
    4703,    2.225209e+00,    3.410588e+01,   -9.749279e+00
    4704,    2.225209e+00,    3.538824e+01,   -9.749279e+00
    4705,    2.225209e+00,    3.667059e+01,   -9.749279e+00
    4706,    2.225209e+00,    3.795294e+01,   -9.749279e+00
    4707,    2.225209e+00,    3.923529e+01,   -9.749279e+00
    4708,    2.225209e+00,    4.051765e+01,   -9.749279e+00
    4709,    4.338837e+00,    2.128235e+01,   -9.009689e+00
    4710,    4.338837e+00,    2.256471e+01,   -9.009689e+00
    4711,    4.338837e+00,    2.384706e+01,   -9.009689e+00
    4712,    4.338837e+00,    2.512941e+01,   -9.009689e+00
    4713,    4.338837e+00,    2.641176e+01,   -9.009689e+00
    4714,    4.338837e+00,    2.769412e+01,   -9.009689e+00
    4715,    4.338837e+00,    2.897647e+01,   -9.009689e+00
    4716,    4.338837e+00,    3.025882e+01,   -9.009689e+00
    4717,    4.338837e+00,    3.154118e+01,   -9.009689e+00
    4718,    4.338837e+00,    3.282353e+01,   -9.009689e+00
    4719,    4.338837e+00,    3.410588e+01,   -9.009689e+00
    4720,    4.338837e+00,    3.538824e+01,   -9.009689e+00
    4721,    4.338837e+00,    3.667059e+01,   -9.009689e+00
    4722,    4.338837e+00,    3.795294e+01,   -9.009689e+00
    4723,    4.338837e+00,    3.923529e+01,   -9.009689e+00
    4724,    4.338837e+00,    4.051765e+01,   -9.009689e+00
    4725,    6.234898e+00,    2.128235e+01,   -7.818315e+00
    4726,    6.234898e+00,    2.256471e+01,   -7.818315e+00
    4727,    6.234898e+00,    2.384706e+01,   -7.818315e+00
    4728,    6.234898e+00,    2.512941e+01,   -7.818315e+00
    4729,    6.234898e+00,    2.641176e+01,   -7.818315e+00
    4730,    6.234898e+00,    2.769412e+01,   -7.818315e+00
    4731,    6.234898e+00,    2.897647e+01,   -7.818315e+00
    4732,    6.234898e+00,    3.025882e+01,   -7.818315e+00
    4733,    6.234898e+00,    3.154118e+01,   -7.818315e+00
    4734,    6.234898e+00,    3.282353e+01,   -7.818315e+00
    4735,    6.234898e+00,    3.410588e+01,   -7.818315e+00
    4736,    6.234898e+00,    3.538824e+01,   -7.818315e+00
    4737,    6.234898e+00,    3.667059e+01,   -7.818315e+00
    4738,    6.234898e+00,    3.795294e+01,   -7.818315e+00
    4739,    6.234898e+00,    3.923529e+01,   -7.818315e+00
    4740,    6.234898e+00,    4.051765e+01,   -7.818315e+00
    4741,    7.818315e+00,    2.128235e+01,   -6.234898e+00
    4742,    7.818315e+00,    2.256471e+01,   -6.234898e+00
    4743,    7.818315e+00,    2.384706e+01,   -6.234898e+00
    4744,    7.818315e+00,    2.512941e+01,   -6.234898e+00
    4745,    7.818315e+00,    2.641176e+01,   -6.234898e+00
    4746,    7.818315e+00,    2.769412e+01,   -6.234898e+00
    4747,    7.818315e+00,    2.897647e+01,   -6.234898e+00
    4748,    7.818315e+00,    3.025882e+01,   -6.234898e+00
    4749,    7.818315e+00,    3.154118e+01,   -6.234898e+00
    4750,    7.818315e+00,    3.282353e+01,   -6.234898e+00
    4751,    7.818315e+00,    3.410588e+01,   -6.234898e+00
    4752,    7.818315e+00,    3.538824e+01,   -6.234898e+00
    4753,    7.818315e+00,    3.667059e+01,   -6.234898e+00
    4754,    7.818315e+00,    3.795294e+01,   -6.234898e+00
    4755,    7.818315e+00,    3.923529e+01,   -6.234898e+00
    4756,    7.818315e+00,    4.051765e+01,   -6.234898e+00
    4757,    9.009689e+00,    2.128235e+01,   -4.338837e+00
    4758,    9.009689e+00,    2.256471e+01,   -4.338837e+00
    4759,    9.009689e+00,    2.384706e+01,   -4.338837e+00
    4760,    9.009689e+00,    2.512941e+01,   -4.338837e+00
    4761,    9.009689e+00,    2.641176e+01,   -4.338837e+00
    4762,    9.009689e+00,    2.769412e+01,   -4.338837e+00
    4763,    9.009689e+00,    2.897647e+01,   -4.338837e+00
    4764,    9.009689e+00,    3.025882e+01,   -4.338837e+00
    4765,    9.009689e+00,    3.154118e+01,   -4.338837e+00
    4766,    9.009689e+00,    3.282353e+01,   -4.338837e+00
    4767,    9.009689e+00,    3.410588e+01,   -4.338837e+00
    4768,    9.009689e+00,    3.538824e+01,   -4.338837e+00
    4769,    9.009689e+00,    3.667059e+01,   -4.338837e+00
    4770,    9.009689e+00,    3.795294e+01,   -4.338837e+00
    4771,    9.009689e+00,    3.923529e+01,   -4.338837e+00
    4772,    9.009689e+00,    4.051765e+01,   -4.338837e+00
    4773,    9.749279e+00,    2.128235e+01,   -2.225209e+00
    4774,    9.749279e+00,    2.256471e+01,   -2.225209e+00
    4775,    9.749279e+00,    2.384706e+01,   -2.225209e+00
    4776,    9.749279e+00,    2.512941e+01,   -2.225209e+00
    4777,    9.749279e+00,    2.641176e+01,   -2.225209e+00
    4778,    9.749279e+00,    2.769412e+01,   -2.225209e+00
    4779,    9.749279e+00,    2.897647e+01,   -2.225209e+00
    4780,    9.749279e+00,    3.025882e+01,   -2.225209e+00
    4781,    9.749279e+00,    3.154118e+01,   -2.225209e+00
    4782,    9.749279e+00,    3.282353e+01,   -2.225209e+00
    4783,    9.749279e+00,    3.410588e+01,   -2.225209e+00
    4784,    9.749279e+00,    3.538824e+01,   -2.225209e+00
    4785,    9.749279e+00,    3.667059e+01,   -2.225209e+00
    4786,    9.749279e+00,    3.795294e+01,   -2.225209e+00
    4787,    9.749279e+00,    3.923529e+01,   -2.225209e+00
    4788,    9.749279e+00,    4.051765e+01,   -2.225209e+00
    4789,    6.840806e+00,    2.128235e+01,   -5.309894e+00
    4790,    5.525158e+00,    2.128235e+01,   -5.824169e+00
    4791,    3.866234e+00,    2.128235e+01,   -6.482100e+00
    4792,    1.975763e+00,    2.128235e+01,   -7.049762e+00
    4793,    1.903308e+00,    2.128235e+01,   -4.640728e+00
    4794,    1.908332e+00,    2.128235e+01,   -2.295249e+00
    4795,    3.753719e+00,    2.128235e+01,   -4.285651e+00
    4796,    3.833892e+00,    2.128235e+01,   -2.139020e+00
    4797,    5.509063e+00,    2.128235e+01,   -3.978288e+00
    4798,    5.714397e+00,    2.128235e+01,   -2.015197e+00
    4799,    7.178946e+00,    2.128235e+01,   -3.870615e+00
    4800,    7.639957e+00,    2.128235e+01,   -2.024445e+00
    4801,    6.840806e+00,    2.256471e+01,   -5.309894e+00
    4802,    5.525158e+00,    2.256471e+01,   -5.824169e+00
    4803,    3.866234e+00,    2.256471e+01,   -6.482100e+00
    4804,    1.975763e+00,    2.256471e+01,   -7.049762e+00
    4805,    1.903308e+00,    2.256471e+01,   -4.640728e+00
    4806,    1.908332e+00,    2.256471e+01,   -2.295249e+00
    4807,    3.753719e+00,    2.256471e+01,   -4.285651e+00
    4808,    3.833892e+00,    2.256471e+01,   -2.139020e+00
    4809,    5.509063e+00,    2.256471e+01,   -3.978288e+00
    4810,    5.714397e+00,    2.256471e+01,   -2.015197e+00
    4811,    7.178946e+00,    2.256471e+01,   -3.870615e+00
    4812,    7.639957e+00,    2.256471e+01,   -2.024445e+00
    4813,    6.840806e+00,    2.384706e+01,   -5.309894e+00
    4814,    5.525158e+00,    2.384706e+01,   -5.824169e+00
    4815,    3.866234e+00,    2.384706e+01,   -6.482100e+00
    4816,    1.975763e+00,    2.384706e+01,   -7.049762e+00
    4817,    1.903308e+00,    2.384706e+01,   -4.640728e+00
    4818,    1.908332e+00,    2.384706e+01,   -2.295249e+00
    4819,    3.753719e+00,    2.384706e+01,   -4.285651e+00
    4820,    3.833892e+00,    2.384706e+01,   -2.139020e+00
    4821,    5.509063e+00,    2.384706e+01,   -3.978288e+00
    4822,    5.714397e+00,    2.384706e+01,   -2.015197e+00
    4823,    7.178946e+00,    2.384706e+01,   -3.870615e+00
    4824,    7.639957e+00,    2.384706e+01,   -2.024445e+00
    4825,    6.840806e+00,    2.512941e+01,   -5.309894e+00
    4826,    5.525158e+00,    2.512941e+01,   -5.824169e+00
    4827,    3.866234e+00,    2.512941e+01,   -6.482100e+00
    4828,    1.975763e+00,    2.512941e+01,   -7.049762e+00
    4829,    1.903308e+00,    2.512941e+01,   -4.640728e+00
    4830,    1.908332e+00,    2.512941e+01,   -2.295249e+00
    4831,    3.753719e+00,    2.512941e+01,   -4.285651e+00
    4832,    3.833892e+00,    2.512941e+01,   -2.139020e+00
    4833,    5.509063e+00,    2.512941e+01,   -3.978288e+00
    4834,    5.714397e+00,    2.512941e+01,   -2.015197e+00
    4835,    7.178946e+00,    2.512941e+01,   -3.870615e+00
    4836,    7.639957e+00,    2.512941e+01,   -2.024445e+00
    4837,    6.840806e+00,    2.641176e+01,   -5.309894e+00
    4838,    5.525158e+00,    2.641176e+01,   -5.824169e+00
    4839,    3.866234e+00,    2.641176e+01,   -6.482100e+00
    4840,    1.975763e+00,    2.641176e+01,   -7.049762e+00
    4841,    1.903308e+00,    2.641176e+01,   -4.640728e+00
    4842,    1.908332e+00,    2.641176e+01,   -2.295249e+00
    4843,    3.753719e+00,    2.641176e+01,   -4.285651e+00
    4844,    3.833892e+00,    2.641176e+01,   -2.139020e+00
    4845,    5.509063e+00,    2.641176e+01,   -3.978288e+00
    4846,    5.714397e+00,    2.641176e+01,   -2.015197e+00
    4847,    7.178946e+00,    2.641176e+01,   -3.870615e+00
    4848,    7.639957e+00,    2.641176e+01,   -2.024445e+00
    4849,    6.840806e+00,    2.769412e+01,   -5.309894e+00
    4850,    5.525158e+00,    2.769412e+01,   -5.824169e+00
    4851,    3.866234e+00,    2.769412e+01,   -6.482100e+00
    4852,    1.975763e+00,    2.769412e+01,   -7.049762e+00
    4853,    1.903308e+00,    2.769412e+01,   -4.640728e+00
    4854,    1.908332e+00,    2.769412e+01,   -2.295249e+00
    4855,    3.753719e+00,    2.769412e+01,   -4.285651e+00
    4856,    3.833892e+00,    2.769412e+01,   -2.139020e+00
    4857,    5.509063e+00,    2.769412e+01,   -3.978288e+00
    4858,    5.714397e+00,    2.769412e+01,   -2.015197e+00
    4859,    7.178946e+00,    2.769412e+01,   -3.870615e+00
    4860,    7.639957e+00,    2.769412e+01,   -2.024445e+00
    4861,    6.840806e+00,    2.897647e+01,   -5.309894e+00
    4862,    5.525158e+00,    2.897647e+01,   -5.824169e+00
    4863,    3.866234e+00,    2.897647e+01,   -6.482100e+00
    4864,    1.975763e+00,    2.897647e+01,   -7.049762e+00
    4865,    1.903308e+00,    2.897647e+01,   -4.640728e+00
    4866,    1.908332e+00,    2.897647e+01,   -2.295249e+00
    4867,    3.753719e+00,    2.897647e+01,   -4.285651e+00
    4868,    3.833892e+00,    2.897647e+01,   -2.139020e+00
    4869,    5.509063e+00,    2.897647e+01,   -3.978288e+00
    4870,    5.714397e+00,    2.897647e+01,   -2.015197e+00
    4871,    7.178946e+00,    2.897647e+01,   -3.870615e+00
    4872,    7.639957e+00,    2.897647e+01,   -2.024445e+00
    4873,    6.840806e+00,    3.025882e+01,   -5.309894e+00
    4874,    5.525158e+00,    3.025882e+01,   -5.824169e+00
    4875,    3.866234e+00,    3.025882e+01,   -6.482100e+00
    4876,    1.975763e+00,    3.025882e+01,   -7.049762e+00
    4877,    1.903308e+00,    3.025882e+01,   -4.640728e+00
    4878,    1.908332e+00,    3.025882e+01,   -2.295249e+00
    4879,    3.753719e+00,    3.025882e+01,   -4.285651e+00
    4880,    3.833892e+00,    3.025882e+01,   -2.139020e+00
    4881,    5.509063e+00,    3.025882e+01,   -3.978288e+00
    4882,    5.714397e+00,    3.025882e+01,   -2.015197e+00
    4883,    7.178946e+00,    3.025882e+01,   -3.870615e+00
    4884,    7.639957e+00,    3.025882e+01,   -2.024445e+00
    4885,    6.840806e+00,    3.154118e+01,   -5.309894e+00
    4886,    5.525158e+00,    3.154118e+01,   -5.824169e+00
    4887,    3.866234e+00,    3.154118e+01,   -6.482100e+00
    4888,    1.975763e+00,    3.154118e+01,   -7.049762e+00
    4889,    1.903308e+00,    3.154118e+01,   -4.640728e+00
    4890,    1.908332e+00,    3.154118e+01,   -2.295249e+00
    4891,    3.753719e+00,    3.154118e+01,   -4.285651e+00
    4892,    3.833892e+00,    3.154118e+01,   -2.139020e+00
    4893,    5.509063e+00,    3.154118e+01,   -3.978288e+00
    4894,    5.714397e+00,    3.154118e+01,   -2.015197e+00
    4895,    7.178946e+00,    3.154118e+01,   -3.870615e+00
    4896,    7.639957e+00,    3.154118e+01,   -2.024445e+00
    4897,    6.840806e+00,    3.282353e+01,   -5.309894e+00
    4898,    5.525158e+00,    3.282353e+01,   -5.824169e+00
    4899,    3.866234e+00,    3.282353e+01,   -6.482100e+00
    4900,    1.975763e+00,    3.282353e+01,   -7.049762e+00
    4901,    1.903308e+00,    3.282353e+01,   -4.640728e+00
    4902,    1.908332e+00,    3.282353e+01,   -2.295249e+00
    4903,    3.753719e+00,    3.282353e+01,   -4.285651e+00
    4904,    3.833892e+00,    3.282353e+01,   -2.139020e+00
    4905,    5.509063e+00,    3.282353e+01,   -3.978288e+00
    4906,    5.714397e+00,    3.282353e+01,   -2.015197e+00
    4907,    7.178946e+00,    3.282353e+01,   -3.870615e+00
    4908,    7.639957e+00,    3.282353e+01,   -2.024445e+00
    4909,    6.840806e+00,    3.410588e+01,   -5.309894e+00
    4910,    5.525158e+00,    3.410588e+01,   -5.824169e+00
    4911,    3.866234e+00,    3.410588e+01,   -6.482100e+00
    4912,    1.975763e+00,    3.410588e+01,   -7.049762e+00
    4913,    1.903308e+00,    3.410588e+01,   -4.640728e+00
    4914,    1.908332e+00,    3.410588e+01,   -2.295249e+00
    4915,    3.753719e+00,    3.410588e+01,   -4.285651e+00
    4916,    3.833892e+00,    3.410588e+01,   -2.139020e+00
    4917,    5.509063e+00,    3.410588e+01,   -3.978288e+00
    4918,    5.714397e+00,    3.410588e+01,   -2.015197e+00
    4919,    7.178946e+00,    3.410588e+01,   -3.870615e+00
    4920,    7.639957e+00,    3.410588e+01,   -2.024445e+00
    4921,    6.840806e+00,    3.538824e+01,   -5.309894e+00
    4922,    5.525158e+00,    3.538824e+01,   -5.824169e+00
    4923,    3.866234e+00,    3.538824e+01,   -6.482100e+00
    4924,    1.975763e+00,    3.538824e+01,   -7.049762e+00
    4925,    1.903308e+00,    3.538824e+01,   -4.640728e+00
    4926,    1.908332e+00,    3.538824e+01,   -2.295249e+00
    4927,    3.753719e+00,    3.538824e+01,   -4.285651e+00
    4928,    3.833892e+00,    3.538824e+01,   -2.139020e+00
    4929,    5.509063e+00,    3.538824e+01,   -3.978288e+00
    4930,    5.714397e+00,    3.538824e+01,   -2.015197e+00
    4931,    7.178946e+00,    3.538824e+01,   -3.870615e+00
    4932,    7.639957e+00,    3.538824e+01,   -2.024445e+00
    4933,    6.840806e+00,    3.667059e+01,   -5.309894e+00
    4934,    5.525158e+00,    3.667059e+01,   -5.824169e+00
    4935,    3.866234e+00,    3.667059e+01,   -6.482100e+00
    4936,    1.975763e+00,    3.667059e+01,   -7.049762e+00
    4937,    1.903308e+00,    3.667059e+01,   -4.640728e+00
    4938,    1.908332e+00,    3.667059e+01,   -2.295249e+00
    4939,    3.753719e+00,    3.667059e+01,   -4.285651e+00
    4940,    3.833892e+00,    3.667059e+01,   -2.139020e+00
    4941,    5.509063e+00,    3.667059e+01,   -3.978288e+00
    4942,    5.714397e+00,    3.667059e+01,   -2.015197e+00
    4943,    7.178946e+00,    3.667059e+01,   -3.870615e+00
    4944,    7.639957e+00,    3.667059e+01,   -2.024445e+00
    4945,    6.840806e+00,    3.795294e+01,   -5.309894e+00
    4946,    5.525158e+00,    3.795294e+01,   -5.824169e+00
    4947,    3.866234e+00,    3.795294e+01,   -6.482100e+00
    4948,    1.975763e+00,    3.795294e+01,   -7.049762e+00
    4949,    1.903308e+00,    3.795294e+01,   -4.640728e+00
    4950,    1.908332e+00,    3.795294e+01,   -2.295249e+00
    4951,    3.753719e+00,    3.795294e+01,   -4.285651e+00
    4952,    3.833892e+00,    3.795294e+01,   -2.139020e+00
    4953,    5.509063e+00,    3.795294e+01,   -3.978288e+00
    4954,    5.714397e+00,    3.795294e+01,   -2.015197e+00
    4955,    7.178946e+00,    3.795294e+01,   -3.870615e+00
    4956,    7.639957e+00,    3.795294e+01,   -2.024445e+00
    4957,    6.840806e+00,    3.923529e+01,   -5.309894e+00
    4958,    5.525158e+00,    3.923529e+01,   -5.824169e+00
    4959,    3.866234e+00,    3.923529e+01,   -6.482100e+00
    4960,    1.975763e+00,    3.923529e+01,   -7.049762e+00
    4961,    1.903308e+00,    3.923529e+01,   -4.640728e+00
    4962,    1.908332e+00,    3.923529e+01,   -2.295249e+00
    4963,    3.753719e+00,    3.923529e+01,   -4.285651e+00
    4964,    3.833892e+00,    3.923529e+01,   -2.139020e+00
    4965,    5.509063e+00,    3.923529e+01,   -3.978288e+00
    4966,    5.714397e+00,    3.923529e+01,   -2.015197e+00
    4967,    7.178946e+00,    3.923529e+01,   -3.870615e+00
    4968,    7.639957e+00,    3.923529e+01,   -2.024445e+00
    4969,    6.840806e+00,    4.051765e+01,   -5.309894e+00
    4970,    5.525158e+00,    4.051765e+01,   -5.824169e+00
    4971,    3.866234e+00,    4.051765e+01,   -6.482100e+00
    4972,    1.975763e+00,    4.051765e+01,   -7.049762e+00
    4973,    1.903308e+00,    4.051765e+01,   -4.640728e+00
    4974,    1.908332e+00,    4.051765e+01,   -2.295249e+00
    4975,    3.753719e+00,    4.051765e+01,   -4.285651e+00
    4976,    3.833892e+00,    4.051765e+01,   -2.139020e+00
    4977,    5.509063e+00,    4.051765e+01,   -3.978288e+00
    4978,    5.714397e+00,    4.051765e+01,   -2.015197e+00
    4979,    7.178946e+00,    4.051765e+01,   -3.870615e+00
    4980,    7.639957e+00,    4.051765e+01,   -2.024445e+00
    4981,    6.840806e+00,    4.180000e+01,   -5.309894e+00
    4982,    5.525158e+00,    4.180000e+01,   -5.824169e+00
    4983,    3.866234e+00,    4.180000e+01,   -6.482100e+00
    4984,    1.975763e+00,    4.180000e+01,   -7.049762e+00
    4985,    1.903308e+00,    4.180000e+01,   -4.640728e+00
    4986,    1.908332e+00,    4.180000e+01,   -2.295249e+00
    4987,    3.753719e+00,    4.180000e+01,   -4.285651e+00
    4988,    3.833892e+00,    4.180000e+01,   -2.139020e+00
    4989,    5.509063e+00,    4.180000e+01,   -3.978288e+00
    4990,    5.714397e+00,    4.180000e+01,   -2.015197e+00
    4991,    7.178946e+00,    4.180000e+01,   -3.870615e+00
    4992,    7.639957e+00,    4.180000e+01,   -2.024445e+00
    4993,    0.000000e+00,    6.666670e+00,   -1.000000e+01
    4994,    0.000000e+00,    7.878791e+00,   -1.000000e+01
    4995,    0.000000e+00,    9.090912e+00,   -1.000000e+01
    4996,    0.000000e+00,    1.030303e+01,   -1.000000e+01
    4997,    0.000000e+00,    1.151515e+01,   -1.000000e+01
    4998,    0.000000e+00,    1.272727e+01,   -1.000000e+01
    4999,    0.000000e+00,    1.393940e+01,   -1.000000e+01
    5000,    0.000000e+00,    1.515152e+01,   -1.000000e+01
    5001,    0.000000e+00,    1.636364e+01,   -1.000000e+01
    5002,    0.000000e+00,    1.757576e+01,   -1.000000e+01
    5003,    0.000000e+00,    1.878788e+01,   -1.000000e+01
    5004,    0.000000e+00,    6.666670e+00,    0.000000e+00
    5005,    0.000000e+00,    6.666670e+00,   -7.500000e+00
    5006,    0.000000e+00,    6.666670e+00,   -5.000000e+00
    5007,    0.000000e+00,    6.666670e+00,   -2.500000e+00
    5008,    0.000000e+00,    1.878788e+01,    0.000000e+00
    5009,    0.000000e+00,    1.757576e+01,    0.000000e+00
    5010,    0.000000e+00,    1.636364e+01,    0.000000e+00
    5011,    0.000000e+00,    1.515152e+01,    0.000000e+00
    5012,    0.000000e+00,    1.393940e+01,    0.000000e+00
    5013,    0.000000e+00,    1.272727e+01,    0.000000e+00
    5014,    0.000000e+00,    1.151515e+01,    0.000000e+00
    5015,    0.000000e+00,    1.030303e+01,    0.000000e+00
    5016,    0.000000e+00,    9.090912e+00,    0.000000e+00
    5017,    0.000000e+00,    7.878791e+00,    0.000000e+00
    5018,    0.000000e+00,    1.878788e+01,   -7.500000e+00
    5019,    0.000000e+00,    1.757576e+01,   -7.500000e+00
    5020,    0.000000e+00,    1.636364e+01,   -7.500000e+00
    5021,    0.000000e+00,    1.515152e+01,   -7.500000e+00
    5022,    0.000000e+00,    1.393940e+01,   -7.500000e+00
    5023,    0.000000e+00,    1.272727e+01,   -7.500000e+00
    5024,    0.000000e+00,    1.151515e+01,   -7.500000e+00
    5025,    0.000000e+00,    1.030303e+01,   -7.500000e+00
    5026,    0.000000e+00,    9.090912e+00,   -7.500000e+00
    5027,    0.000000e+00,    7.878791e+00,   -7.500000e+00
    5028,    0.000000e+00,    1.878788e+01,   -5.000000e+00
    5029,    0.000000e+00,    1.757576e+01,   -5.000000e+00
    5030,    0.000000e+00,    1.636364e+01,   -5.000000e+00
    5031,    0.000000e+00,    1.515152e+01,   -5.000000e+00
    5032,    0.000000e+00,    1.393940e+01,   -5.000000e+00
    5033,    0.000000e+00,    1.272727e+01,   -5.000000e+00
    5034,    0.000000e+00,    1.151515e+01,   -5.000000e+00
    5035,    0.000000e+00,    1.030303e+01,   -5.000000e+00
    5036,    0.000000e+00,    9.090912e+00,   -5.000000e+00
    5037,    0.000000e+00,    7.878791e+00,   -5.000000e+00
    5038,    0.000000e+00,    1.878788e+01,   -2.500000e+00
    5039,    0.000000e+00,    1.757576e+01,   -2.500000e+00
    5040,    0.000000e+00,    1.636364e+01,   -2.500000e+00
    5041,    0.000000e+00,    1.515152e+01,   -2.500000e+00
    5042,    0.000000e+00,    1.393940e+01,   -2.500000e+00
    5043,    0.000000e+00,    1.272727e+01,   -2.500000e+00
    5044,    0.000000e+00,    1.151515e+01,   -2.500000e+00
    5045,    0.000000e+00,    1.030303e+01,   -2.500000e+00
    5046,    0.000000e+00,    9.090912e+00,   -2.500000e+00
    5047,    0.000000e+00,    7.878791e+00,   -2.500000e+00
    5048,    1.000000e+01,    6.666670e+00,    0.000000e+00
    5049,    8.000000e+00,    6.666670e+00,    0.000000e+00
    5050,    6.000000e+00,    6.666670e+00,    0.000000e+00
    5051,    4.000000e+00,    6.666670e+00,    0.000000e+00
    5052,    2.000000e+00,    6.666670e+00,    0.000000e+00
    5053,    1.000000e+01,    7.878791e+00,    3.339945e-16
    5054,    1.000000e+01,    9.090912e+00,    2.597735e-16
    5055,    1.000000e+01,    1.030303e+01,    1.855525e-16
    5056,    1.000000e+01,    1.151515e+01,    1.113315e-16
    5057,    1.000000e+01,    1.272727e+01,    3.711050e-17
    5058,    1.000000e+01,    1.393940e+01,   -3.711050e-17
    5059,    1.000000e+01,    1.515152e+01,   -1.113315e-16
    5060,    1.000000e+01,    1.636364e+01,   -1.855525e-16
    5061,    1.000000e+01,    1.757576e+01,   -2.597735e-16
    5062,    1.000000e+01,    1.878788e+01,   -3.339945e-16
    5063,    2.000000e+00,    1.878788e+01,    0.000000e+00
    5064,    2.000000e+00,    1.757576e+01,    0.000000e+00
    5065,    2.000000e+00,    1.636364e+01,    0.000000e+00
    5066,    2.000000e+00,    1.515152e+01,    0.000000e+00
    5067,    2.000000e+00,    1.393940e+01,    0.000000e+00
    5068,    2.000000e+00,    1.272727e+01,    0.000000e+00
    5069,    2.000000e+00,    1.151515e+01,    0.000000e+00
    5070,    2.000000e+00,    1.030303e+01,    0.000000e+00
    5071,    2.000000e+00,    9.090912e+00,    0.000000e+00
    5072,    2.000000e+00,    7.878791e+00,    0.000000e+00
    5073,    4.000000e+00,    1.878788e+01,    0.000000e+00
    5074,    4.000000e+00,    1.757576e+01,    0.000000e+00
    5075,    4.000000e+00,    1.636364e+01,    0.000000e+00
    5076,    4.000000e+00,    1.515152e+01,    0.000000e+00
    5077,    4.000000e+00,    1.393940e+01,    0.000000e+00
    5078,    4.000000e+00,    1.272727e+01,    0.000000e+00
    5079,    4.000000e+00,    1.151515e+01,    0.000000e+00
    5080,    4.000000e+00,    1.030303e+01,    0.000000e+00
    5081,    4.000000e+00,    9.090912e+00,    0.000000e+00
    5082,    4.000000e+00,    7.878791e+00,    0.000000e+00
    5083,    6.000000e+00,    1.878788e+01,    0.000000e+00
    5084,    6.000000e+00,    1.757576e+01,    0.000000e+00
    5085,    6.000000e+00,    1.636364e+01,    0.000000e+00
    5086,    6.000000e+00,    1.515152e+01,    0.000000e+00
    5087,    6.000000e+00,    1.393940e+01,    0.000000e+00
    5088,    6.000000e+00,    1.272727e+01,    0.000000e+00
    5089,    6.000000e+00,    1.151515e+01,    0.000000e+00
    5090,    6.000000e+00,    1.030303e+01,    0.000000e+00
    5091,    6.000000e+00,    9.090912e+00,    0.000000e+00
    5092,    6.000000e+00,    7.878791e+00,    0.000000e+00
    5093,    8.000000e+00,    1.878788e+01,    0.000000e+00
    5094,    8.000000e+00,    1.757576e+01,    0.000000e+00
    5095,    8.000000e+00,    1.636364e+01,    0.000000e+00
    5096,    8.000000e+00,    1.515152e+01,    0.000000e+00
    5097,    8.000000e+00,    1.393940e+01,    0.000000e+00
    5098,    8.000000e+00,    1.272727e+01,    0.000000e+00
    5099,    8.000000e+00,    1.151515e+01,    0.000000e+00
    5100,    8.000000e+00,    1.030303e+01,    0.000000e+00
    5101,    8.000000e+00,    9.090912e+00,    0.000000e+00
    5102,    8.000000e+00,    7.878791e+00,    0.000000e+00
    5103,    2.225209e+00,    6.666670e+00,   -9.749279e+00
    5104,    4.338837e+00,    6.666670e+00,   -9.009689e+00
    5105,    6.234898e+00,    6.666670e+00,   -7.818315e+00
    5106,    7.818315e+00,    6.666670e+00,   -6.234898e+00
    5107,    9.009689e+00,    6.666670e+00,   -4.338837e+00
    5108,    9.749279e+00,    6.666670e+00,   -2.225209e+00
    5109,    2.225209e+00,    7.878791e+00,   -9.749279e+00
    5110,    2.225209e+00,    9.090912e+00,   -9.749279e+00
    5111,    2.225209e+00,    1.030303e+01,   -9.749279e+00
    5112,    2.225209e+00,    1.151515e+01,   -9.749279e+00
    5113,    2.225209e+00,    1.272727e+01,   -9.749279e+00
    5114,    2.225209e+00,    1.393940e+01,   -9.749279e+00
    5115,    2.225209e+00,    1.515152e+01,   -9.749279e+00
    5116,    2.225209e+00,    1.636364e+01,   -9.749279e+00
    5117,    2.225209e+00,    1.757576e+01,   -9.749279e+00
    5118,    2.225209e+00,    1.878788e+01,   -9.749279e+00
    5119,    4.338837e+00,    7.878791e+00,   -9.009689e+00
    5120,    4.338837e+00,    9.090912e+00,   -9.009689e+00
    5121,    4.338837e+00,    1.030303e+01,   -9.009689e+00
    5122,    4.338837e+00,    1.151515e+01,   -9.009689e+00
    5123,    4.338837e+00,    1.272727e+01,   -9.009689e+00
    5124,    4.338837e+00,    1.393940e+01,   -9.009689e+00
    5125,    4.338837e+00,    1.515152e+01,   -9.009689e+00
    5126,    4.338837e+00,    1.636364e+01,   -9.009689e+00
    5127,    4.338837e+00,    1.757576e+01,   -9.009689e+00
    5128,    4.338837e+00,    1.878788e+01,   -9.009689e+00
    5129,    6.234898e+00,    7.878791e+00,   -7.818315e+00
    5130,    6.234898e+00,    9.090912e+00,   -7.818315e+00
    5131,    6.234898e+00,    1.030303e+01,   -7.818315e+00
    5132,    6.234898e+00,    1.151515e+01,   -7.818315e+00
    5133,    6.234898e+00,    1.272727e+01,   -7.818315e+00
    5134,    6.234898e+00,    1.393940e+01,   -7.818315e+00
    5135,    6.234898e+00,    1.515152e+01,   -7.818315e+00
    5136,    6.234898e+00,    1.636364e+01,   -7.818315e+00
    5137,    6.234898e+00,    1.757576e+01,   -7.818315e+00
    5138,    6.234898e+00,    1.878788e+01,   -7.818315e+00
    5139,    7.818315e+00,    7.878791e+00,   -6.234898e+00
    5140,    7.818315e+00,    9.090912e+00,   -6.234898e+00
    5141,    7.818315e+00,    1.030303e+01,   -6.234898e+00
    5142,    7.818315e+00,    1.151515e+01,   -6.234898e+00
    5143,    7.818315e+00,    1.272727e+01,   -6.234898e+00
    5144,    7.818315e+00,    1.393940e+01,   -6.234898e+00
    5145,    7.818315e+00,    1.515152e+01,   -6.234898e+00
    5146,    7.818315e+00,    1.636364e+01,   -6.234898e+00
    5147,    7.818315e+00,    1.757576e+01,   -6.234898e+00
    5148,    7.818315e+00,    1.878788e+01,   -6.234898e+00
    5149,    9.009689e+00,    7.878791e+00,   -4.338837e+00
    5150,    9.009689e+00,    9.090912e+00,   -4.338837e+00
    5151,    9.009689e+00,    1.030303e+01,   -4.338837e+00
    5152,    9.009689e+00,    1.151515e+01,   -4.338837e+00
    5153,    9.009689e+00,    1.272727e+01,   -4.338837e+00
    5154,    9.009689e+00,    1.393940e+01,   -4.338837e+00
    5155,    9.009689e+00,    1.515152e+01,   -4.338837e+00
    5156,    9.009689e+00,    1.636364e+01,   -4.338837e+00
    5157,    9.009689e+00,    1.757576e+01,   -4.338837e+00
    5158,    9.009689e+00,    1.878788e+01,   -4.338837e+00
    5159,    9.749279e+00,    7.878791e+00,   -2.225209e+00
    5160,    9.749279e+00,    9.090912e+00,   -2.225209e+00
    5161,    9.749279e+00,    1.030303e+01,   -2.225209e+00
    5162,    9.749279e+00,    1.151515e+01,   -2.225209e+00
    5163,    9.749279e+00,    1.272727e+01,   -2.225209e+00
    5164,    9.749279e+00,    1.393940e+01,   -2.225209e+00
    5165,    9.749279e+00,    1.515152e+01,   -2.225209e+00
    5166,    9.749279e+00,    1.636364e+01,   -2.225209e+00
    5167,    9.749279e+00,    1.757576e+01,   -2.225209e+00
    5168,    9.749279e+00,    1.878788e+01,   -2.225209e+00
    5169,    5.525158e+00,    1.878788e+01,   -5.824169e+00
    5170,    6.840806e+00,    1.878788e+01,   -5.309894e+00
    5171,    3.866234e+00,    1.878788e+01,   -6.482100e+00
    5172,    1.975763e+00,    1.878788e+01,   -7.049762e+00
    5173,    1.903308e+00,    1.878788e+01,   -4.640728e+00
    5174,    1.908332e+00,    1.878788e+01,   -2.295249e+00
    5175,    3.753719e+00,    1.878788e+01,   -4.285651e+00
    5176,    3.833892e+00,    1.878788e+01,   -2.139020e+00
    5177,    5.509063e+00,    1.878788e+01,   -3.978288e+00
    5178,    5.714397e+00,    1.878788e+01,   -2.015197e+00
    5179,    7.178946e+00,    1.878788e+01,   -3.870615e+00
    5180,    7.639957e+00,    1.878788e+01,   -2.024445e+00
    5181,    5.525158e+00,    1.757576e+01,   -5.824169e+00
    5182,    6.840806e+00,    1.757576e+01,   -5.309894e+00
    5183,    3.866234e+00,    1.757576e+01,   -6.482100e+00
    5184,    1.975763e+00,    1.757576e+01,   -7.049762e+00
    5185,    1.903308e+00,    1.757576e+01,   -4.640728e+00
    5186,    1.908332e+00,    1.757576e+01,   -2.295249e+00
    5187,    3.753719e+00,    1.757576e+01,   -4.285651e+00
    5188,    3.833892e+00,    1.757576e+01,   -2.139020e+00
    5189,    5.509063e+00,    1.757576e+01,   -3.978288e+00
    5190,    5.714397e+00,    1.757576e+01,   -2.015197e+00
    5191,    7.178946e+00,    1.757576e+01,   -3.870615e+00
    5192,    7.639957e+00,    1.757576e+01,   -2.024445e+00
    5193,    5.525158e+00,    1.636364e+01,   -5.824169e+00
    5194,    6.840806e+00,    1.636364e+01,   -5.309894e+00
    5195,    3.866234e+00,    1.636364e+01,   -6.482100e+00
    5196,    1.975763e+00,    1.636364e+01,   -7.049762e+00
    5197,    1.903308e+00,    1.636364e+01,   -4.640728e+00
    5198,    1.908332e+00,    1.636364e+01,   -2.295249e+00
    5199,    3.753719e+00,    1.636364e+01,   -4.285651e+00
    5200,    3.833892e+00,    1.636364e+01,   -2.139020e+00
    5201,    5.509063e+00,    1.636364e+01,   -3.978288e+00
    5202,    5.714397e+00,    1.636364e+01,   -2.015197e+00
    5203,    7.178946e+00,    1.636364e+01,   -3.870615e+00
    5204,    7.639957e+00,    1.636364e+01,   -2.024445e+00
    5205,    5.525158e+00,    1.515152e+01,   -5.824169e+00
    5206,    6.840806e+00,    1.515152e+01,   -5.309894e+00
    5207,    3.866234e+00,    1.515152e+01,   -6.482100e+00
    5208,    1.975763e+00,    1.515152e+01,   -7.049762e+00
    5209,    1.903308e+00,    1.515152e+01,   -4.640728e+00
    5210,    1.908332e+00,    1.515152e+01,   -2.295249e+00
    5211,    3.753719e+00,    1.515152e+01,   -4.285651e+00
    5212,    3.833892e+00,    1.515152e+01,   -2.139020e+00
    5213,    5.509063e+00,    1.515152e+01,   -3.978288e+00
    5214,    5.714397e+00,    1.515152e+01,   -2.015197e+00
    5215,    7.178946e+00,    1.515152e+01,   -3.870615e+00
    5216,    7.639957e+00,    1.515152e+01,   -2.024445e+00
    5217,    5.525158e+00,    1.393940e+01,   -5.824169e+00
    5218,    6.840806e+00,    1.393940e+01,   -5.309894e+00
    5219,    3.866234e+00,    1.393940e+01,   -6.482100e+00
    5220,    1.975763e+00,    1.393940e+01,   -7.049762e+00
    5221,    1.903308e+00,    1.393940e+01,   -4.640728e+00
    5222,    1.908332e+00,    1.393940e+01,   -2.295249e+00
    5223,    3.753719e+00,    1.393940e+01,   -4.285651e+00
    5224,    3.833892e+00,    1.393940e+01,   -2.139020e+00
    5225,    5.509063e+00,    1.393940e+01,   -3.978288e+00
    5226,    5.714397e+00,    1.393940e+01,   -2.015197e+00
    5227,    7.178946e+00,    1.393940e+01,   -3.870615e+00
    5228,    7.639957e+00,    1.393940e+01,   -2.024445e+00
    5229,    5.525158e+00,    1.272727e+01,   -5.824169e+00
    5230,    6.840806e+00,    1.272727e+01,   -5.309894e+00
    5231,    3.866234e+00,    1.272727e+01,   -6.482100e+00
    5232,    1.975763e+00,    1.272727e+01,   -7.049762e+00
    5233,    1.903308e+00,    1.272727e+01,   -4.640728e+00
    5234,    1.908332e+00,    1.272727e+01,   -2.295249e+00
    5235,    3.753719e+00,    1.272727e+01,   -4.285651e+00
    5236,    3.833892e+00,    1.272727e+01,   -2.139020e+00
    5237,    5.509063e+00,    1.272727e+01,   -3.978288e+00
    5238,    5.714397e+00,    1.272727e+01,   -2.015197e+00
    5239,    7.178946e+00,    1.272727e+01,   -3.870615e+00
    5240,    7.639957e+00,    1.272727e+01,   -2.024445e+00
    5241,    5.525158e+00,    1.151515e+01,   -5.824169e+00
    5242,    6.840806e+00,    1.151515e+01,   -5.309894e+00
    5243,    3.866234e+00,    1.151515e+01,   -6.482100e+00
    5244,    1.975763e+00,    1.151515e+01,   -7.049762e+00
    5245,    1.903308e+00,    1.151515e+01,   -4.640728e+00
    5246,    1.908332e+00,    1.151515e+01,   -2.295249e+00
    5247,    3.753719e+00,    1.151515e+01,   -4.285651e+00
    5248,    3.833892e+00,    1.151515e+01,   -2.139020e+00
    5249,    5.509063e+00,    1.151515e+01,   -3.978288e+00
    5250,    5.714397e+00,    1.151515e+01,   -2.015197e+00
    5251,    7.178946e+00,    1.151515e+01,   -3.870615e+00
    5252,    7.639957e+00,    1.151515e+01,   -2.024445e+00
    5253,    5.525158e+00,    1.030303e+01,   -5.824169e+00
    5254,    6.840806e+00,    1.030303e+01,   -5.309894e+00
    5255,    3.866234e+00,    1.030303e+01,   -6.482100e+00
    5256,    1.975763e+00,    1.030303e+01,   -7.049762e+00
    5257,    1.903308e+00,    1.030303e+01,   -4.640728e+00
    5258,    1.908332e+00,    1.030303e+01,   -2.295249e+00
    5259,    3.753719e+00,    1.030303e+01,   -4.285651e+00
    5260,    3.833892e+00,    1.030303e+01,   -2.139020e+00
    5261,    5.509063e+00,    1.030303e+01,   -3.978288e+00
    5262,    5.714397e+00,    1.030303e+01,   -2.015197e+00
    5263,    7.178946e+00,    1.030303e+01,   -3.870615e+00
    5264,    7.639957e+00,    1.030303e+01,   -2.024445e+00
    5265,    5.525158e+00,    9.090912e+00,   -5.824169e+00
    5266,    6.840806e+00,    9.090912e+00,   -5.309894e+00
    5267,    3.866234e+00,    9.090912e+00,   -6.482100e+00
    5268,    1.975763e+00,    9.090912e+00,   -7.049762e+00
    5269,    1.903308e+00,    9.090912e+00,   -4.640728e+00
    5270,    1.908332e+00,    9.090912e+00,   -2.295249e+00
    5271,    3.753719e+00,    9.090912e+00,   -4.285651e+00
    5272,    3.833892e+00,    9.090912e+00,   -2.139020e+00
    5273,    5.509063e+00,    9.090912e+00,   -3.978288e+00
    5274,    5.714397e+00,    9.090912e+00,   -2.015197e+00
    5275,    7.178946e+00,    9.090912e+00,   -3.870615e+00
    5276,    7.639957e+00,    9.090912e+00,   -2.024445e+00
    5277,    5.525158e+00,    7.878791e+00,   -5.824169e+00
    5278,    6.840806e+00,    7.878791e+00,   -5.309894e+00
    5279,    3.866234e+00,    7.878791e+00,   -6.482100e+00
    5280,    1.975763e+00,    7.878791e+00,   -7.049762e+00
    5281,    1.903308e+00,    7.878791e+00,   -4.640728e+00
    5282,    1.908332e+00,    7.878791e+00,   -2.295249e+00
    5283,    3.753719e+00,    7.878791e+00,   -4.285651e+00
    5284,    3.833892e+00,    7.878791e+00,   -2.139020e+00
    5285,    5.509063e+00,    7.878791e+00,   -3.978288e+00
    5286,    5.714397e+00,    7.878791e+00,   -2.015197e+00
    5287,    7.178946e+00,    7.878791e+00,   -3.870615e+00
    5288,    7.639957e+00,    7.878791e+00,   -2.024445e+00
    5289,    5.525158e+00,    6.666670e+00,   -5.824169e+00
    5290,    6.840806e+00,    6.666670e+00,   -5.309894e+00
    5291,    3.866234e+00,    6.666670e+00,   -6.482100e+00
    5292,    1.975763e+00,    6.666670e+00,   -7.049762e+00
    5293,    1.903308e+00,    6.666670e+00,   -4.640728e+00
    5294,    1.908332e+00,    6.666670e+00,   -2.295249e+00
    5295,    3.753719e+00,    6.666670e+00,   -4.285651e+00
    5296,    3.833892e+00,    6.666670e+00,   -2.139020e+00
    5297,    5.509063e+00,    6.666670e+00,   -3.978288e+00
    5298,    5.714397e+00,    6.666670e+00,   -2.015197e+00
    5299,    7.178946e+00,    6.666670e+00,   -3.870615e+00
    5300,    7.639957e+00,    6.666670e+00,   -2.024445e+00
    5301,    0.000000e+00,    0.000000e+00,   -1.000000e+01
    5302,    0.000000e+00,    1.333334e+00,   -1.000000e+01
    5303,    0.000000e+00,    2.666668e+00,   -1.000000e+01
    5304,    0.000000e+00,    4.000002e+00,   -1.000000e+01
    5305,    0.000000e+00,    5.333336e+00,   -1.000000e+01
    5306,    0.000000e+00,    0.000000e+00,    0.000000e+00
    5307,    0.000000e+00,    0.000000e+00,   -7.500000e+00
    5308,    0.000000e+00,    0.000000e+00,   -5.000000e+00
    5309,    0.000000e+00,    0.000000e+00,   -2.500000e+00
    5310,    0.000000e+00,    5.333336e+00,    0.000000e+00
    5311,    0.000000e+00,    4.000002e+00,    0.000000e+00
    5312,    0.000000e+00,    2.666668e+00,    0.000000e+00
    5313,    0.000000e+00,    1.333334e+00,    0.000000e+00
    5314,    0.000000e+00,    5.333336e+00,   -7.500000e+00
    5315,    0.000000e+00,    4.000002e+00,   -7.500000e+00
    5316,    0.000000e+00,    2.666668e+00,   -7.500000e+00
    5317,    0.000000e+00,    1.333334e+00,   -7.500000e+00
    5318,    0.000000e+00,    5.333336e+00,   -5.000000e+00
    5319,    0.000000e+00,    4.000002e+00,   -5.000000e+00
    5320,    0.000000e+00,    2.666668e+00,   -5.000000e+00
    5321,    0.000000e+00,    1.333334e+00,   -5.000000e+00
    5322,    0.000000e+00,    5.333336e+00,   -2.500000e+00
    5323,    0.000000e+00,    4.000002e+00,   -2.500000e+00
    5324,    0.000000e+00,    2.666668e+00,   -2.500000e+00
    5325,    0.000000e+00,    1.333334e+00,   -2.500000e+00
    5326,    1.000000e+01,    0.000000e+00,    0.000000e+00
    5327,    8.000000e+00,    0.000000e+00,    0.000000e+00
    5328,    6.000000e+00,    0.000000e+00,    0.000000e+00
    5329,    4.000000e+00,    0.000000e+00,    0.000000e+00
    5330,    2.000000e+00,    0.000000e+00,    0.000000e+00
    5331,    1.000000e+01,    1.333334e+00,    1.224647e-16
    5332,    1.000000e+01,    2.666668e+00,    4.082158e-17
    5333,    1.000000e+01,    4.000002e+00,   -4.082158e-17
    5334,    1.000000e+01,    5.333336e+00,   -1.224647e-16
    5335,    2.000000e+00,    5.333336e+00,    0.000000e+00
    5336,    2.000000e+00,    4.000002e+00,    0.000000e+00
    5337,    2.000000e+00,    2.666668e+00,    0.000000e+00
    5338,    2.000000e+00,    1.333334e+00,    0.000000e+00
    5339,    4.000000e+00,    5.333336e+00,    0.000000e+00
    5340,    4.000000e+00,    4.000002e+00,    0.000000e+00
    5341,    4.000000e+00,    2.666668e+00,    0.000000e+00
    5342,    4.000000e+00,    1.333334e+00,    0.000000e+00
    5343,    6.000000e+00,    5.333336e+00,    0.000000e+00
    5344,    6.000000e+00,    4.000002e+00,    0.000000e+00
    5345,    6.000000e+00,    2.666668e+00,    0.000000e+00
    5346,    6.000000e+00,    1.333334e+00,    0.000000e+00
    5347,    8.000000e+00,    5.333336e+00,    0.000000e+00
    5348,    8.000000e+00,    4.000002e+00,    0.000000e+00
    5349,    8.000000e+00,    2.666668e+00,    0.000000e+00
    5350,    8.000000e+00,    1.333334e+00,    0.000000e+00
    5351,    2.225209e+00,    0.000000e+00,   -9.749279e+00
    5352,    4.338837e+00,    0.000000e+00,   -9.009689e+00
    5353,    6.234898e+00,    0.000000e+00,   -7.818315e+00
    5354,    7.818315e+00,    0.000000e+00,   -6.234898e+00
    5355,    9.009689e+00,    0.000000e+00,   -4.338837e+00
    5356,    9.749279e+00,    0.000000e+00,   -2.225209e+00
    5357,    2.225209e+00,    1.333334e+00,   -9.749279e+00
    5358,    2.225209e+00,    2.666668e+00,   -9.749279e+00
    5359,    2.225209e+00,    4.000002e+00,   -9.749279e+00
    5360,    2.225209e+00,    5.333336e+00,   -9.749279e+00
    5361,    4.338837e+00,    1.333334e+00,   -9.009689e+00
    5362,    4.338837e+00,    2.666668e+00,   -9.009689e+00
    5363,    4.338837e+00,    4.000002e+00,   -9.009689e+00
    5364,    4.338837e+00,    5.333336e+00,   -9.009689e+00
    5365,    6.234898e+00,    1.333334e+00,   -7.818315e+00
    5366,    6.234898e+00,    2.666668e+00,   -7.818315e+00
    5367,    6.234898e+00,    4.000002e+00,   -7.818315e+00
    5368,    6.234898e+00,    5.333336e+00,   -7.818315e+00
    5369,    7.818315e+00,    1.333334e+00,   -6.234898e+00
    5370,    7.818315e+00,    2.666668e+00,   -6.234898e+00
    5371,    7.818315e+00,    4.000002e+00,   -6.234898e+00
    5372,    7.818315e+00,    5.333336e+00,   -6.234898e+00
    5373,    9.009689e+00,    1.333334e+00,   -4.338837e+00
    5374,    9.009689e+00,    2.666668e+00,   -4.338837e+00
    5375,    9.009689e+00,    4.000002e+00,   -4.338837e+00
    5376,    9.009689e+00,    5.333336e+00,   -4.338837e+00
    5377,    9.749279e+00,    1.333334e+00,   -2.225209e+00
    5378,    9.749279e+00,    2.666668e+00,   -2.225209e+00
    5379,    9.749279e+00,    4.000002e+00,   -2.225209e+00
    5380,    9.749279e+00,    5.333336e+00,   -2.225209e+00
    5381,    7.178946e+00,    5.333336e+00,   -3.870615e+00
    5382,    6.840806e+00,    5.333336e+00,   -5.309894e+00
    5383,    7.639957e+00,    5.333336e+00,   -2.024445e+00
    5384,    5.714397e+00,    5.333336e+00,   -2.015197e+00
    5385,    5.509063e+00,    5.333336e+00,   -3.978288e+00
    5386,    5.525158e+00,    5.333336e+00,   -5.824169e+00
    5387,    3.833892e+00,    5.333336e+00,   -2.139020e+00
    5388,    3.753719e+00,    5.333336e+00,   -4.285651e+00
    5389,    3.866234e+00,    5.333336e+00,   -6.482100e+00
    5390,    1.908332e+00,    5.333336e+00,   -2.295249e+00
    5391,    1.903308e+00,    5.333336e+00,   -4.640728e+00
    5392,    1.975763e+00,    5.333336e+00,   -7.049762e+00
    5393,    7.178946e+00,    4.000002e+00,   -3.870615e+00
    5394,    6.840806e+00,    4.000002e+00,   -5.309894e+00
    5395,    7.639957e+00,    4.000002e+00,   -2.024445e+00
    5396,    5.714397e+00,    4.000002e+00,   -2.015197e+00
    5397,    5.509063e+00,    4.000002e+00,   -3.978288e+00
    5398,    5.525158e+00,    4.000002e+00,   -5.824169e+00
    5399,    3.833892e+00,    4.000002e+00,   -2.139020e+00
    5400,    3.753719e+00,    4.000002e+00,   -4.285651e+00
    5401,    3.866234e+00,    4.000002e+00,   -6.482100e+00
    5402,    1.908332e+00,    4.000002e+00,   -2.295249e+00
    5403,    1.903308e+00,    4.000002e+00,   -4.640728e+00
    5404,    1.975763e+00,    4.000002e+00,   -7.049762e+00
    5405,    7.178946e+00,    2.666668e+00,   -3.870615e+00
    5406,    6.840806e+00,    2.666668e+00,   -5.309894e+00
    5407,    7.639957e+00,    2.666668e+00,   -2.024445e+00
    5408,    5.714397e+00,    2.666668e+00,   -2.015197e+00
    5409,    5.509063e+00,    2.666668e+00,   -3.978288e+00
    5410,    5.525158e+00,    2.666668e+00,   -5.824169e+00
    5411,    3.833892e+00,    2.666668e+00,   -2.139020e+00
    5412,    3.753719e+00,    2.666668e+00,   -4.285651e+00
    5413,    3.866234e+00,    2.666668e+00,   -6.482100e+00
    5414,    1.908332e+00,    2.666668e+00,   -2.295249e+00
    5415,    1.903308e+00,    2.666668e+00,   -4.640728e+00
    5416,    1.975763e+00,    2.666668e+00,   -7.049762e+00
    5417,    7.178946e+00,    1.333334e+00,   -3.870615e+00
    5418,    6.840806e+00,    1.333334e+00,   -5.309894e+00
    5419,    7.639957e+00,    1.333334e+00,   -2.024445e+00
    5420,    5.714397e+00,    1.333334e+00,   -2.015197e+00
    5421,    5.509063e+00,    1.333334e+00,   -3.978288e+00
    5422,    5.525158e+00,    1.333334e+00,   -5.824169e+00
    5423,    3.833892e+00,    1.333334e+00,   -2.139020e+00
    5424,    3.753719e+00,    1.333334e+00,   -4.285651e+00
    5425,    3.866234e+00,    1.333334e+00,   -6.482100e+00
    5426,    1.908332e+00,    1.333334e+00,   -2.295249e+00
    5427,    1.903308e+00,    1.333334e+00,   -4.640728e+00
    5428,    1.975763e+00,    1.333334e+00,   -7.049762e+00
    5429,    7.178946e+00,    0.000000e+00,   -3.870615e+00
    5430,    6.840806e+00,    0.000000e+00,   -5.309894e+00
    5431,    7.639957e+00,    0.000000e+00,   -2.024445e+00
    5432,    5.714397e+00,    0.000000e+00,   -2.015197e+00
    5433,    5.509063e+00,    0.000000e+00,   -3.978288e+00
    5434,    5.525158e+00,    0.000000e+00,   -5.824169e+00
    5435,    3.833892e+00,    0.000000e+00,   -2.139020e+00
    5436,    3.753719e+00,    0.000000e+00,   -4.285651e+00
    5437,    3.866234e+00,    0.000000e+00,   -6.482100e+00
    5438,    1.908332e+00,    0.000000e+00,   -2.295249e+00
    5439,    1.903308e+00,    0.000000e+00,   -4.640728e+00
    5440,    1.975763e+00,    0.000000e+00,   -7.049762e+00
    5441,    0.000000e+00,   -7.000000e+01,   -1.000000e+01
    5442,    0.000000e+00,   -6.611111e+01,   -1.000000e+01
    5443,    0.000000e+00,   -6.222222e+01,   -1.000000e+01
    5444,    0.000000e+00,   -5.833333e+01,   -1.000000e+01
    5445,    0.000000e+00,   -5.444444e+01,   -1.000000e+01
    5446,    0.000000e+00,   -5.055556e+01,   -1.000000e+01
    5447,    0.000000e+00,   -4.666667e+01,   -1.000000e+01
    5448,    0.000000e+00,   -4.277778e+01,   -1.000000e+01
    5449,    0.000000e+00,   -3.888889e+01,   -1.000000e+01
    5450,    0.000000e+00,   -3.500000e+01,   -1.000000e+01
    5451,    0.000000e+00,   -3.111111e+01,   -1.000000e+01
    5452,    0.000000e+00,   -2.722222e+01,   -1.000000e+01
    5453,    0.000000e+00,   -2.333333e+01,   -1.000000e+01
    5454,    0.000000e+00,   -1.944444e+01,   -1.000000e+01
    5455,    0.000000e+00,   -1.555556e+01,   -1.000000e+01
    5456,    0.000000e+00,   -1.166667e+01,   -1.000000e+01
    5457,    0.000000e+00,   -7.777778e+00,   -1.000000e+01
    5458,    0.000000e+00,   -3.888889e+00,   -1.000000e+01
    5459,    0.000000e+00,   -7.000000e+01,    0.000000e+00
    5460,    0.000000e+00,   -7.000000e+01,   -2.500000e+00
    5461,    0.000000e+00,   -7.000000e+01,   -5.000000e+00
    5462,    0.000000e+00,   -7.000000e+01,   -7.500000e+00
    5463,    0.000000e+00,   -3.888889e+00,    0.000000e+00
    5464,    0.000000e+00,   -7.777778e+00,    0.000000e+00
    5465,    0.000000e+00,   -1.166667e+01,    0.000000e+00
    5466,    0.000000e+00,   -1.555556e+01,    0.000000e+00
    5467,    0.000000e+00,   -1.944444e+01,    0.000000e+00
    5468,    0.000000e+00,   -2.333333e+01,    0.000000e+00
    5469,    0.000000e+00,   -2.722222e+01,    0.000000e+00
    5470,    0.000000e+00,   -3.111111e+01,    0.000000e+00
    5471,    0.000000e+00,   -3.500000e+01,    0.000000e+00
    5472,    0.000000e+00,   -3.888889e+01,    0.000000e+00
    5473,    0.000000e+00,   -4.277778e+01,    0.000000e+00
    5474,    0.000000e+00,   -4.666667e+01,    0.000000e+00
    5475,    0.000000e+00,   -5.055556e+01,    0.000000e+00
    5476,    0.000000e+00,   -5.444444e+01,    0.000000e+00
    5477,    0.000000e+00,   -5.833333e+01,    0.000000e+00
    5478,    0.000000e+00,   -6.222222e+01,    0.000000e+00
    5479,    0.000000e+00,   -6.611111e+01,    0.000000e+00
    5480,    0.000000e+00,   -3.888889e+00,   -7.500000e+00
    5481,    0.000000e+00,   -7.777778e+00,   -7.500000e+00
    5482,    0.000000e+00,   -1.166667e+01,   -7.500000e+00
    5483,    0.000000e+00,   -1.555556e+01,   -7.500000e+00
    5484,    0.000000e+00,   -1.944444e+01,   -7.500000e+00
    5485,    0.000000e+00,   -2.333333e+01,   -7.500000e+00
    5486,    0.000000e+00,   -2.722222e+01,   -7.500000e+00
    5487,    0.000000e+00,   -3.111111e+01,   -7.500000e+00
    5488,    0.000000e+00,   -3.500000e+01,   -7.500000e+00
    5489,    0.000000e+00,   -3.888889e+01,   -7.500000e+00
    5490,    0.000000e+00,   -4.277778e+01,   -7.500000e+00
    5491,    0.000000e+00,   -4.666667e+01,   -7.500000e+00
    5492,    0.000000e+00,   -5.055556e+01,   -7.500000e+00
    5493,    0.000000e+00,   -5.444444e+01,   -7.500000e+00
    5494,    0.000000e+00,   -5.833333e+01,   -7.500000e+00
    5495,    0.000000e+00,   -6.222222e+01,   -7.500000e+00
    5496,    0.000000e+00,   -6.611111e+01,   -7.500000e+00
    5497,    0.000000e+00,   -3.888889e+00,   -5.000000e+00
    5498,    0.000000e+00,   -7.777778e+00,   -5.000000e+00
    5499,    0.000000e+00,   -1.166667e+01,   -5.000000e+00
    5500,    0.000000e+00,   -1.555556e+01,   -5.000000e+00
    5501,    0.000000e+00,   -1.944444e+01,   -5.000000e+00
    5502,    0.000000e+00,   -2.333333e+01,   -5.000000e+00
    5503,    0.000000e+00,   -2.722222e+01,   -5.000000e+00
    5504,    0.000000e+00,   -3.111111e+01,   -5.000000e+00
    5505,    0.000000e+00,   -3.500000e+01,   -5.000000e+00
    5506,    0.000000e+00,   -3.888889e+01,   -5.000000e+00
    5507,    0.000000e+00,   -4.277778e+01,   -5.000000e+00
    5508,    0.000000e+00,   -4.666667e+01,   -5.000000e+00
    5509,    0.000000e+00,   -5.055556e+01,   -5.000000e+00
    5510,    0.000000e+00,   -5.444444e+01,   -5.000000e+00
    5511,    0.000000e+00,   -5.833333e+01,   -5.000000e+00
    5512,    0.000000e+00,   -6.222222e+01,   -5.000000e+00
    5513,    0.000000e+00,   -6.611111e+01,   -5.000000e+00
    5514,    0.000000e+00,   -3.888889e+00,   -2.500000e+00
    5515,    0.000000e+00,   -7.777778e+00,   -2.500000e+00
    5516,    0.000000e+00,   -1.166667e+01,   -2.500000e+00
    5517,    0.000000e+00,   -1.555556e+01,   -2.500000e+00
    5518,    0.000000e+00,   -1.944444e+01,   -2.500000e+00
    5519,    0.000000e+00,   -2.333333e+01,   -2.500000e+00
    5520,    0.000000e+00,   -2.722222e+01,   -2.500000e+00
    5521,    0.000000e+00,   -3.111111e+01,   -2.500000e+00
    5522,    0.000000e+00,   -3.500000e+01,   -2.500000e+00
    5523,    0.000000e+00,   -3.888889e+01,   -2.500000e+00
    5524,    0.000000e+00,   -4.277778e+01,   -2.500000e+00
    5525,    0.000000e+00,   -4.666667e+01,   -2.500000e+00
    5526,    0.000000e+00,   -5.055556e+01,   -2.500000e+00
    5527,    0.000000e+00,   -5.444444e+01,   -2.500000e+00
    5528,    0.000000e+00,   -5.833333e+01,   -2.500000e+00
    5529,    0.000000e+00,   -6.222222e+01,   -2.500000e+00
    5530,    0.000000e+00,   -6.611111e+01,   -2.500000e+00
    5531,    1.000000e+01,   -7.000000e+01,    3.422888e-15
    5532,    2.000000e+00,   -7.000000e+01,    0.000000e+00
    5533,    4.000000e+00,   -7.000000e+01,    0.000000e+00
    5534,    6.000000e+00,   -7.000000e+01,    0.000000e+00
    5535,    8.000000e+00,   -7.000000e+01,    0.000000e+00
    5536,    1.000000e+01,   -6.611111e+01,    3.184762e-15
    5537,    1.000000e+01,   -6.222222e+01,    2.946636e-15
    5538,    1.000000e+01,   -5.833333e+01,    2.708511e-15
    5539,    1.000000e+01,   -5.444444e+01,    2.470385e-15
    5540,    1.000000e+01,   -5.055556e+01,    2.232259e-15
    5541,    1.000000e+01,   -4.666667e+01,    1.994133e-15
    5542,    1.000000e+01,   -4.277778e+01,    1.756007e-15
    5543,    1.000000e+01,   -3.888889e+01,    1.517882e-15
    5544,    1.000000e+01,   -3.500000e+01,    1.279756e-15
    5545,    1.000000e+01,   -3.111111e+01,    1.041630e-15
    5546,    1.000000e+01,   -2.722222e+01,    8.035044e-16
    5547,    1.000000e+01,   -2.333333e+01,    5.653786e-16
    5548,    1.000000e+01,   -1.944444e+01,    3.272528e-16
    5549,    1.000000e+01,   -1.555556e+01,    8.912707e-17
    5550,    1.000000e+01,   -1.166667e+01,   -1.489987e-16
    5551,    1.000000e+01,   -7.777778e+00,   -3.871245e-16
    5552,    1.000000e+01,   -3.888889e+00,   -6.252502e-16
    5553,    2.000000e+00,   -3.888889e+00,    0.000000e+00
    5554,    2.000000e+00,   -7.777778e+00,    0.000000e+00
    5555,    2.000000e+00,   -1.166667e+01,    0.000000e+00
    5556,    2.000000e+00,   -1.555556e+01,    0.000000e+00
    5557,    2.000000e+00,   -1.944444e+01,    0.000000e+00
    5558,    2.000000e+00,   -2.333333e+01,    0.000000e+00
    5559,    2.000000e+00,   -2.722222e+01,    0.000000e+00
    5560,    2.000000e+00,   -3.111111e+01,    0.000000e+00
    5561,    2.000000e+00,   -3.500000e+01,    0.000000e+00
    5562,    2.000000e+00,   -3.888889e+01,    0.000000e+00
    5563,    2.000000e+00,   -4.277778e+01,    0.000000e+00
    5564,    2.000000e+00,   -4.666667e+01,    0.000000e+00
    5565,    2.000000e+00,   -5.055556e+01,    0.000000e+00
    5566,    2.000000e+00,   -5.444444e+01,    0.000000e+00
    5567,    2.000000e+00,   -5.833333e+01,    0.000000e+00
    5568,    2.000000e+00,   -6.222222e+01,    0.000000e+00
    5569,    2.000000e+00,   -6.611111e+01,    0.000000e+00
    5570,    4.000000e+00,   -3.888889e+00,    0.000000e+00
    5571,    4.000000e+00,   -7.777778e+00,    0.000000e+00
    5572,    4.000000e+00,   -1.166667e+01,    0.000000e+00
    5573,    4.000000e+00,   -1.555556e+01,    0.000000e+00
    5574,    4.000000e+00,   -1.944444e+01,    0.000000e+00
    5575,    4.000000e+00,   -2.333333e+01,    0.000000e+00
    5576,    4.000000e+00,   -2.722222e+01,    0.000000e+00
    5577,    4.000000e+00,   -3.111111e+01,    0.000000e+00
    5578,    4.000000e+00,   -3.500000e+01,    0.000000e+00
    5579,    4.000000e+00,   -3.888889e+01,    0.000000e+00
    5580,    4.000000e+00,   -4.277778e+01,    0.000000e+00
    5581,    4.000000e+00,   -4.666667e+01,    0.000000e+00
    5582,    4.000000e+00,   -5.055556e+01,    0.000000e+00
    5583,    4.000000e+00,   -5.444444e+01,    0.000000e+00
    5584,    4.000000e+00,   -5.833333e+01,    0.000000e+00
    5585,    4.000000e+00,   -6.222222e+01,    0.000000e+00
    5586,    4.000000e+00,   -6.611111e+01,    0.000000e+00
    5587,    6.000000e+00,   -3.888889e+00,    0.000000e+00
    5588,    6.000000e+00,   -7.777778e+00,    0.000000e+00
    5589,    6.000000e+00,   -1.166667e+01,    0.000000e+00
    5590,    6.000000e+00,   -1.555556e+01,    0.000000e+00
    5591,    6.000000e+00,   -1.944444e+01,    0.000000e+00
    5592,    6.000000e+00,   -2.333333e+01,    0.000000e+00
    5593,    6.000000e+00,   -2.722222e+01,    0.000000e+00
    5594,    6.000000e+00,   -3.111111e+01,    0.000000e+00
    5595,    6.000000e+00,   -3.500000e+01,    0.000000e+00
    5596,    6.000000e+00,   -3.888889e+01,    0.000000e+00
    5597,    6.000000e+00,   -4.277778e+01,    0.000000e+00
    5598,    6.000000e+00,   -4.666667e+01,    0.000000e+00
    5599,    6.000000e+00,   -5.055556e+01,    0.000000e+00
    5600,    6.000000e+00,   -5.444444e+01,    0.000000e+00
    5601,    6.000000e+00,   -5.833333e+01,    0.000000e+00
    5602,    6.000000e+00,   -6.222222e+01,    0.000000e+00
    5603,    6.000000e+00,   -6.611111e+01,    0.000000e+00
    5604,    8.000000e+00,   -3.888889e+00,    0.000000e+00
    5605,    8.000000e+00,   -7.777778e+00,    0.000000e+00
    5606,    8.000000e+00,   -1.166667e+01,    0.000000e+00
    5607,    8.000000e+00,   -1.555556e+01,    0.000000e+00
    5608,    8.000000e+00,   -1.944444e+01,    0.000000e+00
    5609,    8.000000e+00,   -2.333333e+01,    0.000000e+00
    5610,    8.000000e+00,   -2.722222e+01,    0.000000e+00
    5611,    8.000000e+00,   -3.111111e+01,    0.000000e+00
    5612,    8.000000e+00,   -3.500000e+01,    0.000000e+00
    5613,    8.000000e+00,   -3.888889e+01,    0.000000e+00
    5614,    8.000000e+00,   -4.277778e+01,    0.000000e+00
    5615,    8.000000e+00,   -4.666667e+01,    0.000000e+00
    5616,    8.000000e+00,   -5.055556e+01,    0.000000e+00
    5617,    8.000000e+00,   -5.444444e+01,    0.000000e+00
    5618,    8.000000e+00,   -5.833333e+01,    0.000000e+00
    5619,    8.000000e+00,   -6.222222e+01,    0.000000e+00
    5620,    8.000000e+00,   -6.611111e+01,    0.000000e+00
    5621,    2.225209e+00,   -7.000000e+01,   -9.749279e+00
    5622,    4.338837e+00,   -7.000000e+01,   -9.009689e+00
    5623,    6.234898e+00,   -7.000000e+01,   -7.818315e+00
    5624,    7.818315e+00,   -7.000000e+01,   -6.234898e+00
    5625,    9.009689e+00,   -7.000000e+01,   -4.338837e+00
    5626,    9.749279e+00,   -7.000000e+01,   -2.225209e+00
    5627,    2.225209e+00,   -6.611111e+01,   -9.749279e+00
    5628,    2.225209e+00,   -6.222222e+01,   -9.749279e+00
    5629,    2.225209e+00,   -5.833333e+01,   -9.749279e+00
    5630,    2.225209e+00,   -5.444444e+01,   -9.749279e+00
    5631,    2.225209e+00,   -5.055556e+01,   -9.749279e+00
    5632,    2.225209e+00,   -4.666667e+01,   -9.749279e+00
    5633,    2.225209e+00,   -4.277778e+01,   -9.749279e+00
    5634,    2.225209e+00,   -3.888889e+01,   -9.749279e+00
    5635,    2.225209e+00,   -3.500000e+01,   -9.749279e+00
    5636,    2.225209e+00,   -3.111111e+01,   -9.749279e+00
    5637,    2.225209e+00,   -2.722222e+01,   -9.749279e+00
    5638,    2.225209e+00,   -2.333333e+01,   -9.749279e+00
    5639,    2.225209e+00,   -1.944444e+01,   -9.749279e+00
    5640,    2.225209e+00,   -1.555556e+01,   -9.749279e+00
    5641,    2.225209e+00,   -1.166667e+01,   -9.749279e+00
    5642,    2.225209e+00,   -7.777778e+00,   -9.749279e+00
    5643,    2.225209e+00,   -3.888889e+00,   -9.749279e+00
    5644,    4.338837e+00,   -6.611111e+01,   -9.009689e+00
    5645,    4.338837e+00,   -6.222222e+01,   -9.009689e+00
    5646,    4.338837e+00,   -5.833333e+01,   -9.009689e+00
    5647,    4.338837e+00,   -5.444444e+01,   -9.009689e+00
    5648,    4.338837e+00,   -5.055556e+01,   -9.009689e+00
    5649,    4.338837e+00,   -4.666667e+01,   -9.009689e+00
    5650,    4.338837e+00,   -4.277778e+01,   -9.009689e+00
    5651,    4.338837e+00,   -3.888889e+01,   -9.009689e+00
    5652,    4.338837e+00,   -3.500000e+01,   -9.009689e+00
    5653,    4.338837e+00,   -3.111111e+01,   -9.009689e+00
    5654,    4.338837e+00,   -2.722222e+01,   -9.009689e+00
    5655,    4.338837e+00,   -2.333333e+01,   -9.009689e+00
    5656,    4.338837e+00,   -1.944444e+01,   -9.009689e+00
    5657,    4.338837e+00,   -1.555556e+01,   -9.009689e+00
    5658,    4.338837e+00,   -1.166667e+01,   -9.009689e+00
    5659,    4.338837e+00,   -7.777778e+00,   -9.009689e+00
    5660,    4.338837e+00,   -3.888889e+00,   -9.009689e+00
    5661,    6.234898e+00,   -6.611111e+01,   -7.818315e+00
    5662,    6.234898e+00,   -6.222222e+01,   -7.818315e+00
    5663,    6.234898e+00,   -5.833333e+01,   -7.818315e+00
    5664,    6.234898e+00,   -5.444444e+01,   -7.818315e+00
    5665,    6.234898e+00,   -5.055556e+01,   -7.818315e+00
    5666,    6.234898e+00,   -4.666667e+01,   -7.818315e+00
    5667,    6.234898e+00,   -4.277778e+01,   -7.818315e+00
    5668,    6.234898e+00,   -3.888889e+01,   -7.818315e+00
    5669,    6.234898e+00,   -3.500000e+01,   -7.818315e+00
    5670,    6.234898e+00,   -3.111111e+01,   -7.818315e+00
    5671,    6.234898e+00,   -2.722222e+01,   -7.818315e+00
    5672,    6.234898e+00,   -2.333333e+01,   -7.818315e+00
    5673,    6.234898e+00,   -1.944444e+01,   -7.818315e+00
    5674,    6.234898e+00,   -1.555556e+01,   -7.818315e+00
    5675,    6.234898e+00,   -1.166667e+01,   -7.818315e+00
    5676,    6.234898e+00,   -7.777778e+00,   -7.818315e+00
    5677,    6.234898e+00,   -3.888889e+00,   -7.818315e+00
    5678,    7.818315e+00,   -6.611111e+01,   -6.234898e+00
    5679,    7.818315e+00,   -6.222222e+01,   -6.234898e+00
    5680,    7.818315e+00,   -5.833333e+01,   -6.234898e+00
    5681,    7.818315e+00,   -5.444444e+01,   -6.234898e+00
    5682,    7.818315e+00,   -5.055556e+01,   -6.234898e+00
    5683,    7.818315e+00,   -4.666667e+01,   -6.234898e+00
    5684,    7.818315e+00,   -4.277778e+01,   -6.234898e+00
    5685,    7.818315e+00,   -3.888889e+01,   -6.234898e+00
    5686,    7.818315e+00,   -3.500000e+01,   -6.234898e+00
    5687,    7.818315e+00,   -3.111111e+01,   -6.234898e+00
    5688,    7.818315e+00,   -2.722222e+01,   -6.234898e+00
    5689,    7.818315e+00,   -2.333333e+01,   -6.234898e+00
    5690,    7.818315e+00,   -1.944444e+01,   -6.234898e+00
    5691,    7.818315e+00,   -1.555556e+01,   -6.234898e+00
    5692,    7.818315e+00,   -1.166667e+01,   -6.234898e+00
    5693,    7.818315e+00,   -7.777778e+00,   -6.234898e+00
    5694,    7.818315e+00,   -3.888889e+00,   -6.234898e+00
    5695,    9.009689e+00,   -6.611111e+01,   -4.338837e+00
    5696,    9.009689e+00,   -6.222222e+01,   -4.338837e+00
    5697,    9.009689e+00,   -5.833333e+01,   -4.338837e+00
    5698,    9.009689e+00,   -5.444444e+01,   -4.338837e+00
    5699,    9.009689e+00,   -5.055556e+01,   -4.338837e+00
    5700,    9.009689e+00,   -4.666667e+01,   -4.338837e+00
    5701,    9.009689e+00,   -4.277778e+01,   -4.338837e+00
    5702,    9.009689e+00,   -3.888889e+01,   -4.338837e+00
    5703,    9.009689e+00,   -3.500000e+01,   -4.338837e+00
    5704,    9.009689e+00,   -3.111111e+01,   -4.338837e+00
    5705,    9.009689e+00,   -2.722222e+01,   -4.338837e+00
    5706,    9.009689e+00,   -2.333333e+01,   -4.338837e+00
    5707,    9.009689e+00,   -1.944444e+01,   -4.338837e+00
    5708,    9.009689e+00,   -1.555556e+01,   -4.338837e+00
    5709,    9.009689e+00,   -1.166667e+01,   -4.338837e+00
    5710,    9.009689e+00,   -7.777778e+00,   -4.338837e+00
    5711,    9.009689e+00,   -3.888889e+00,   -4.338837e+00
    5712,    9.749279e+00,   -6.611111e+01,   -2.225209e+00
    5713,    9.749279e+00,   -6.222222e+01,   -2.225209e+00
    5714,    9.749279e+00,   -5.833333e+01,   -2.225209e+00
    5715,    9.749279e+00,   -5.444444e+01,   -2.225209e+00
    5716,    9.749279e+00,   -5.055556e+01,   -2.225209e+00
    5717,    9.749279e+00,   -4.666667e+01,   -2.225209e+00
    5718,    9.749279e+00,   -4.277778e+01,   -2.225209e+00
    5719,    9.749279e+00,   -3.888889e+01,   -2.225209e+00
    5720,    9.749279e+00,   -3.500000e+01,   -2.225209e+00
    5721,    9.749279e+00,   -3.111111e+01,   -2.225209e+00
    5722,    9.749279e+00,   -2.722222e+01,   -2.225209e+00
    5723,    9.749279e+00,   -2.333333e+01,   -2.225209e+00
    5724,    9.749279e+00,   -1.944444e+01,   -2.225209e+00
    5725,    9.749279e+00,   -1.555556e+01,   -2.225209e+00
    5726,    9.749279e+00,   -1.166667e+01,   -2.225209e+00
    5727,    9.749279e+00,   -7.777778e+00,   -2.225209e+00
    5728,    9.749279e+00,   -3.888889e+00,   -2.225209e+00
    5729,    5.525158e+00,   -3.888889e+00,   -5.824169e+00
    5730,    6.840806e+00,   -3.888889e+00,   -5.309894e+00
    5731,    3.866234e+00,   -3.888889e+00,   -6.482100e+00
    5732,    1.975763e+00,   -3.888889e+00,   -7.049762e+00
    5733,    1.903308e+00,   -3.888889e+00,   -4.640728e+00
    5734,    1.908332e+00,   -3.888889e+00,   -2.295249e+00
    5735,    3.753719e+00,   -3.888889e+00,   -4.285651e+00
    5736,    3.833892e+00,   -3.888889e+00,   -2.139020e+00
    5737,    5.509063e+00,   -3.888889e+00,   -3.978288e+00
    5738,    5.714397e+00,   -3.888889e+00,   -2.015197e+00
    5739,    7.178946e+00,   -3.888889e+00,   -3.870615e+00
    5740,    7.639957e+00,   -3.888889e+00,   -2.024445e+00
    5741,    5.525158e+00,   -7.777778e+00,   -5.824169e+00
    5742,    6.840806e+00,   -7.777778e+00,   -5.309894e+00
    5743,    3.866234e+00,   -7.777778e+00,   -6.482100e+00
    5744,    1.975763e+00,   -7.777778e+00,   -7.049762e+00
    5745,    1.903308e+00,   -7.777778e+00,   -4.640728e+00
    5746,    1.908332e+00,   -7.777778e+00,   -2.295249e+00
    5747,    3.753719e+00,   -7.777778e+00,   -4.285651e+00
    5748,    3.833892e+00,   -7.777778e+00,   -2.139020e+00
    5749,    5.509063e+00,   -7.777778e+00,   -3.978288e+00
    5750,    5.714397e+00,   -7.777778e+00,   -2.015197e+00
    5751,    7.178946e+00,   -7.777778e+00,   -3.870615e+00
    5752,    7.639957e+00,   -7.777778e+00,   -2.024445e+00
    5753,    5.525158e+00,   -1.166667e+01,   -5.824169e+00
    5754,    6.840806e+00,   -1.166667e+01,   -5.309894e+00
    5755,    3.866234e+00,   -1.166667e+01,   -6.482100e+00
    5756,    1.975763e+00,   -1.166667e+01,   -7.049762e+00
    5757,    1.903308e+00,   -1.166667e+01,   -4.640728e+00
    5758,    1.908332e+00,   -1.166667e+01,   -2.295249e+00
    5759,    3.753719e+00,   -1.166667e+01,   -4.285651e+00
    5760,    3.833892e+00,   -1.166667e+01,   -2.139020e+00
    5761,    5.509063e+00,   -1.166667e+01,   -3.978288e+00
    5762,    5.714397e+00,   -1.166667e+01,   -2.015197e+00
    5763,    7.178946e+00,   -1.166667e+01,   -3.870615e+00
    5764,    7.639957e+00,   -1.166667e+01,   -2.024445e+00
    5765,    5.525158e+00,   -1.555556e+01,   -5.824169e+00
    5766,    6.840806e+00,   -1.555556e+01,   -5.309894e+00
    5767,    3.866234e+00,   -1.555556e+01,   -6.482100e+00
    5768,    1.975763e+00,   -1.555556e+01,   -7.049762e+00
    5769,    1.903308e+00,   -1.555556e+01,   -4.640728e+00
    5770,    1.908332e+00,   -1.555556e+01,   -2.295249e+00
    5771,    3.753719e+00,   -1.555556e+01,   -4.285651e+00
    5772,    3.833892e+00,   -1.555556e+01,   -2.139020e+00
    5773,    5.509063e+00,   -1.555556e+01,   -3.978288e+00
    5774,    5.714397e+00,   -1.555556e+01,   -2.015197e+00
    5775,    7.178946e+00,   -1.555556e+01,   -3.870615e+00
    5776,    7.639957e+00,   -1.555556e+01,   -2.024445e+00
    5777,    5.525158e+00,   -1.944444e+01,   -5.824169e+00
    5778,    6.840806e+00,   -1.944444e+01,   -5.309894e+00
    5779,    3.866234e+00,   -1.944444e+01,   -6.482100e+00
    5780,    1.975763e+00,   -1.944444e+01,   -7.049762e+00
    5781,    1.903308e+00,   -1.944444e+01,   -4.640728e+00
    5782,    1.908332e+00,   -1.944444e+01,   -2.295249e+00
    5783,    3.753719e+00,   -1.944444e+01,   -4.285651e+00
    5784,    3.833892e+00,   -1.944444e+01,   -2.139020e+00
    5785,    5.509063e+00,   -1.944444e+01,   -3.978288e+00
    5786,    5.714397e+00,   -1.944444e+01,   -2.015197e+00
    5787,    7.178946e+00,   -1.944444e+01,   -3.870615e+00
    5788,    7.639957e+00,   -1.944444e+01,   -2.024445e+00
    5789,    5.525158e+00,   -2.333333e+01,   -5.824169e+00
    5790,    6.840806e+00,   -2.333333e+01,   -5.309894e+00
    5791,    3.866234e+00,   -2.333333e+01,   -6.482100e+00
    5792,    1.975763e+00,   -2.333333e+01,   -7.049762e+00
    5793,    1.903308e+00,   -2.333333e+01,   -4.640728e+00
    5794,    1.908332e+00,   -2.333333e+01,   -2.295249e+00
    5795,    3.753719e+00,   -2.333333e+01,   -4.285651e+00
    5796,    3.833892e+00,   -2.333333e+01,   -2.139020e+00
    5797,    5.509063e+00,   -2.333333e+01,   -3.978288e+00
    5798,    5.714397e+00,   -2.333333e+01,   -2.015197e+00
    5799,    7.178946e+00,   -2.333333e+01,   -3.870615e+00
    5800,    7.639957e+00,   -2.333333e+01,   -2.024445e+00
    5801,    5.525158e+00,   -2.722222e+01,   -5.824169e+00
    5802,    6.840806e+00,   -2.722222e+01,   -5.309894e+00
    5803,    3.866234e+00,   -2.722222e+01,   -6.482100e+00
    5804,    1.975763e+00,   -2.722222e+01,   -7.049762e+00
    5805,    1.903308e+00,   -2.722222e+01,   -4.640728e+00
    5806,    1.908332e+00,   -2.722222e+01,   -2.295249e+00
    5807,    3.753719e+00,   -2.722222e+01,   -4.285651e+00
    5808,    3.833892e+00,   -2.722222e+01,   -2.139020e+00
    5809,    5.509063e+00,   -2.722222e+01,   -3.978288e+00
    5810,    5.714397e+00,   -2.722222e+01,   -2.015197e+00
    5811,    7.178946e+00,   -2.722222e+01,   -3.870615e+00
    5812,    7.639957e+00,   -2.722222e+01,   -2.024445e+00
    5813,    5.525158e+00,   -3.111111e+01,   -5.824169e+00
    5814,    6.840806e+00,   -3.111111e+01,   -5.309894e+00
    5815,    3.866234e+00,   -3.111111e+01,   -6.482100e+00
    5816,    1.975763e+00,   -3.111111e+01,   -7.049762e+00
    5817,    1.903308e+00,   -3.111111e+01,   -4.640728e+00
    5818,    1.908332e+00,   -3.111111e+01,   -2.295249e+00
    5819,    3.753719e+00,   -3.111111e+01,   -4.285651e+00
    5820,    3.833892e+00,   -3.111111e+01,   -2.139020e+00
    5821,    5.509063e+00,   -3.111111e+01,   -3.978288e+00
    5822,    5.714397e+00,   -3.111111e+01,   -2.015197e+00
    5823,    7.178946e+00,   -3.111111e+01,   -3.870615e+00
    5824,    7.639957e+00,   -3.111111e+01,   -2.024445e+00
    5825,    5.525158e+00,   -3.500000e+01,   -5.824169e+00
    5826,    6.840806e+00,   -3.500000e+01,   -5.309894e+00
    5827,    3.866234e+00,   -3.500000e+01,   -6.482100e+00
    5828,    1.975763e+00,   -3.500000e+01,   -7.049762e+00
    5829,    1.903308e+00,   -3.500000e+01,   -4.640728e+00
    5830,    1.908332e+00,   -3.500000e+01,   -2.295249e+00
    5831,    3.753719e+00,   -3.500000e+01,   -4.285651e+00
    5832,    3.833892e+00,   -3.500000e+01,   -2.139020e+00
    5833,    5.509063e+00,   -3.500000e+01,   -3.978288e+00
    5834,    5.714397e+00,   -3.500000e+01,   -2.015197e+00
    5835,    7.178946e+00,   -3.500000e+01,   -3.870615e+00
    5836,    7.639957e+00,   -3.500000e+01,   -2.024445e+00
    5837,    5.525158e+00,   -3.888889e+01,   -5.824169e+00
    5838,    6.840806e+00,   -3.888889e+01,   -5.309894e+00
    5839,    3.866234e+00,   -3.888889e+01,   -6.482100e+00
    5840,    1.975763e+00,   -3.888889e+01,   -7.049762e+00
    5841,    1.903308e+00,   -3.888889e+01,   -4.640728e+00
    5842,    1.908332e+00,   -3.888889e+01,   -2.295249e+00
    5843,    3.753719e+00,   -3.888889e+01,   -4.285651e+00
    5844,    3.833892e+00,   -3.888889e+01,   -2.139020e+00
    5845,    5.509063e+00,   -3.888889e+01,   -3.978288e+00
    5846,    5.714397e+00,   -3.888889e+01,   -2.015197e+00
    5847,    7.178946e+00,   -3.888889e+01,   -3.870615e+00
    5848,    7.639957e+00,   -3.888889e+01,   -2.024445e+00
    5849,    5.525158e+00,   -4.277778e+01,   -5.824169e+00
    5850,    6.840806e+00,   -4.277778e+01,   -5.309894e+00
    5851,    3.866234e+00,   -4.277778e+01,   -6.482100e+00
    5852,    1.975763e+00,   -4.277778e+01,   -7.049762e+00
    5853,    1.903308e+00,   -4.277778e+01,   -4.640728e+00
    5854,    1.908332e+00,   -4.277778e+01,   -2.295249e+00
    5855,    3.753719e+00,   -4.277778e+01,   -4.285651e+00
    5856,    3.833892e+00,   -4.277778e+01,   -2.139020e+00
    5857,    5.509063e+00,   -4.277778e+01,   -3.978288e+00
    5858,    5.714397e+00,   -4.277778e+01,   -2.015197e+00
    5859,    7.178946e+00,   -4.277778e+01,   -3.870615e+00
    5860,    7.639957e+00,   -4.277778e+01,   -2.024445e+00
    5861,    5.525158e+00,   -4.666667e+01,   -5.824169e+00
    5862,    6.840806e+00,   -4.666667e+01,   -5.309894e+00
    5863,    3.866234e+00,   -4.666667e+01,   -6.482100e+00
    5864,    1.975763e+00,   -4.666667e+01,   -7.049762e+00
    5865,    1.903308e+00,   -4.666667e+01,   -4.640728e+00
    5866,    1.908332e+00,   -4.666667e+01,   -2.295249e+00
    5867,    3.753719e+00,   -4.666667e+01,   -4.285651e+00
    5868,    3.833892e+00,   -4.666667e+01,   -2.139020e+00
    5869,    5.509063e+00,   -4.666667e+01,   -3.978288e+00
    5870,    5.714397e+00,   -4.666667e+01,   -2.015197e+00
    5871,    7.178946e+00,   -4.666667e+01,   -3.870615e+00
    5872,    7.639957e+00,   -4.666667e+01,   -2.024445e+00
    5873,    5.525158e+00,   -5.055556e+01,   -5.824169e+00
    5874,    6.840806e+00,   -5.055556e+01,   -5.309894e+00
    5875,    3.866234e+00,   -5.055556e+01,   -6.482100e+00
    5876,    1.975763e+00,   -5.055556e+01,   -7.049762e+00
    5877,    1.903308e+00,   -5.055556e+01,   -4.640728e+00
    5878,    1.908332e+00,   -5.055556e+01,   -2.295249e+00
    5879,    3.753719e+00,   -5.055556e+01,   -4.285651e+00
    5880,    3.833892e+00,   -5.055556e+01,   -2.139020e+00
    5881,    5.509063e+00,   -5.055556e+01,   -3.978288e+00
    5882,    5.714397e+00,   -5.055556e+01,   -2.015197e+00
    5883,    7.178946e+00,   -5.055556e+01,   -3.870615e+00
    5884,    7.639957e+00,   -5.055556e+01,   -2.024445e+00
    5885,    5.525158e+00,   -5.444444e+01,   -5.824169e+00
    5886,    6.840806e+00,   -5.444444e+01,   -5.309894e+00
    5887,    3.866234e+00,   -5.444444e+01,   -6.482100e+00
    5888,    1.975763e+00,   -5.444444e+01,   -7.049762e+00
    5889,    1.903308e+00,   -5.444444e+01,   -4.640728e+00
    5890,    1.908332e+00,   -5.444444e+01,   -2.295249e+00
    5891,    3.753719e+00,   -5.444444e+01,   -4.285651e+00
    5892,    3.833892e+00,   -5.444444e+01,   -2.139020e+00
    5893,    5.509063e+00,   -5.444444e+01,   -3.978288e+00
    5894,    5.714397e+00,   -5.444444e+01,   -2.015197e+00
    5895,    7.178946e+00,   -5.444444e+01,   -3.870615e+00
    5896,    7.639957e+00,   -5.444444e+01,   -2.024445e+00
    5897,    5.525158e+00,   -5.833333e+01,   -5.824169e+00
    5898,    6.840806e+00,   -5.833333e+01,   -5.309894e+00
    5899,    3.866234e+00,   -5.833333e+01,   -6.482100e+00
    5900,    1.975763e+00,   -5.833333e+01,   -7.049762e+00
    5901,    1.903308e+00,   -5.833333e+01,   -4.640728e+00
    5902,    1.908332e+00,   -5.833333e+01,   -2.295249e+00
    5903,    3.753719e+00,   -5.833333e+01,   -4.285651e+00
    5904,    3.833892e+00,   -5.833333e+01,   -2.139020e+00
    5905,    5.509063e+00,   -5.833333e+01,   -3.978288e+00
    5906,    5.714397e+00,   -5.833333e+01,   -2.015197e+00
    5907,    7.178946e+00,   -5.833333e+01,   -3.870615e+00
    5908,    7.639957e+00,   -5.833333e+01,   -2.024445e+00
    5909,    5.525158e+00,   -6.222222e+01,   -5.824169e+00
    5910,    6.840806e+00,   -6.222222e+01,   -5.309894e+00
    5911,    3.866234e+00,   -6.222222e+01,   -6.482100e+00
    5912,    1.975763e+00,   -6.222222e+01,   -7.049762e+00
    5913,    1.903308e+00,   -6.222222e+01,   -4.640728e+00
    5914,    1.908332e+00,   -6.222222e+01,   -2.295249e+00
    5915,    3.753719e+00,   -6.222222e+01,   -4.285651e+00
    5916,    3.833892e+00,   -6.222222e+01,   -2.139020e+00
    5917,    5.509063e+00,   -6.222222e+01,   -3.978288e+00
    5918,    5.714397e+00,   -6.222222e+01,   -2.015197e+00
    5919,    7.178946e+00,   -6.222222e+01,   -3.870615e+00
    5920,    7.639957e+00,   -6.222222e+01,   -2.024445e+00
    5921,    5.525158e+00,   -6.611111e+01,   -5.824169e+00
    5922,    6.840806e+00,   -6.611111e+01,   -5.309894e+00
    5923,    3.866234e+00,   -6.611111e+01,   -6.482100e+00
    5924,    1.975763e+00,   -6.611111e+01,   -7.049762e+00
    5925,    1.903308e+00,   -6.611111e+01,   -4.640728e+00
    5926,    1.908332e+00,   -6.611111e+01,   -2.295249e+00
    5927,    3.753719e+00,   -6.611111e+01,   -4.285651e+00
    5928,    3.833892e+00,   -6.611111e+01,   -2.139020e+00
    5929,    5.509063e+00,   -6.611111e+01,   -3.978288e+00
    5930,    5.714397e+00,   -6.611111e+01,   -2.015197e+00
    5931,    7.178946e+00,   -6.611111e+01,   -3.870615e+00
    5932,    7.639957e+00,   -6.611111e+01,   -2.024445e+00
    5933,    5.525158e+00,   -7.000000e+01,   -5.824169e+00
    5934,    6.840806e+00,   -7.000000e+01,   -5.309894e+00
    5935,    3.866234e+00,   -7.000000e+01,   -6.482100e+00
    5936,    1.975763e+00,   -7.000000e+01,   -7.049762e+00
    5937,    1.903308e+00,   -7.000000e+01,   -4.640728e+00
    5938,    1.908332e+00,   -7.000000e+01,   -2.295249e+00
    5939,    3.753719e+00,   -7.000000e+01,   -4.285651e+00
    5940,    3.833892e+00,   -7.000000e+01,   -2.139020e+00
    5941,    5.509063e+00,   -7.000000e+01,   -3.978288e+00
    5942,    5.714397e+00,   -7.000000e+01,   -2.015197e+00
    5943,    7.178946e+00,   -7.000000e+01,   -3.870615e+00
    5944,    7.639957e+00,   -7.000000e+01,   -2.024445e+00
   10611,   -1.000000e+01,    2.000000e+01,   -3.312670e-15
   10612,   -9.749279e+00,    2.000000e+01,   -2.225209e+00
   10613,   -9.009689e+00,    2.000000e+01,   -4.338837e+00
   10614,   -7.818315e+00,    2.000000e+01,   -6.234898e+00
   10615,   -6.234898e+00,    2.000000e+01,   -7.818315e+00
   10616,   -4.338837e+00,    2.000000e+01,   -9.009689e+00
   10617,   -2.225209e+00,    2.000000e+01,   -9.749279e+00
   10618,   -2.000000e+00,    2.000000e+01,    0.000000e+00
   10619,   -4.000000e+00,    2.000000e+01,    0.000000e+00
   10620,   -6.000000e+00,    2.000000e+01,    0.000000e+00
   10621,   -8.000000e+00,    2.000000e+01,    0.000000e+00
   10622,   -6.830325e+00,    2.000000e+01,   -5.307483e+00
   10623,   -1.975771e+00,    2.000000e+01,   -7.050566e+00
   10624,   -3.870860e+00,    2.000000e+01,   -6.487469e+00
   10625,   -5.539967e+00,    2.000000e+01,   -5.836899e+00
   10626,   -7.639033e+00,    2.000000e+01,   -2.024699e+00
   10627,   -7.208559e+00,    2.000000e+01,   -3.898144e+00
   10628,   -5.713434e+00,    2.000000e+01,   -2.015796e+00
   10629,   -3.835050e+00,    2.000000e+01,   -2.141056e+00
   10630,   -1.907728e+00,    2.000000e+01,   -2.295649e+00
   10631,   -5.521504e+00,    2.000000e+01,   -3.990354e+00
   10632,   -3.758587e+00,    2.000000e+01,   -4.291406e+00
   10633,   -1.904575e+00,    2.000000e+01,   -4.642807e+00
   10634,   -1.000000e+01,    4.180000e+01,    0.000000e+00
   10635,   -1.000000e+01,    4.051765e+01,   -5.889110e-16
   10636,   -1.000000e+01,    3.923529e+01,   -5.103896e-16
   10637,   -1.000000e+01,    3.795294e+01,   -4.318681e-16
   10638,   -1.000000e+01,    3.667059e+01,   -3.533466e-16
   10639,   -1.000000e+01,    3.538824e+01,   -2.748251e-16
   10640,   -1.000000e+01,    3.410588e+01,   -1.963037e-16
   10641,   -1.000000e+01,    3.282353e+01,   -1.177822e-16
   10642,   -1.000000e+01,    3.154118e+01,   -3.926074e-17
   10643,   -1.000000e+01,    3.025882e+01,    3.926074e-17
   10644,   -1.000000e+01,    2.897647e+01,    1.177822e-16
   10645,   -1.000000e+01,    2.769412e+01,    1.963037e-16
   10646,   -1.000000e+01,    2.641176e+01,    2.748251e-16
   10647,   -1.000000e+01,    2.512941e+01,    3.533466e-16
   10648,   -1.000000e+01,    2.384706e+01,    4.318681e-16
   10649,   -1.000000e+01,    2.256471e+01,    5.103896e-16
   10650,   -1.000000e+01,    2.128235e+01,    5.889110e-16
   10651,   -2.225209e+00,    4.180000e+01,   -9.749279e+00
   10652,   -4.338837e+00,    4.180000e+01,   -9.009689e+00
   10653,   -6.234898e+00,    4.180000e+01,   -7.818315e+00
   10654,   -7.818315e+00,    4.180000e+01,   -6.234898e+00
   10655,   -9.009689e+00,    4.180000e+01,   -4.338837e+00
   10656,   -9.749279e+00,    4.180000e+01,   -2.225209e+00
   10657,   -2.225209e+00,    4.051765e+01,   -9.749279e+00
   10658,   -2.225209e+00,    3.923529e+01,   -9.749279e+00
   10659,   -2.225209e+00,    3.795294e+01,   -9.749279e+00
   10660,   -2.225209e+00,    3.667059e+01,   -9.749279e+00
   10661,   -2.225209e+00,    3.538824e+01,   -9.749279e+00
   10662,   -2.225209e+00,    3.410588e+01,   -9.749279e+00
   10663,   -2.225209e+00,    3.282353e+01,   -9.749279e+00
   10664,   -2.225209e+00,    3.154118e+01,   -9.749279e+00
   10665,   -2.225209e+00,    3.025882e+01,   -9.749279e+00
   10666,   -2.225209e+00,    2.897647e+01,   -9.749279e+00
   10667,   -2.225209e+00,    2.769412e+01,   -9.749279e+00
   10668,   -2.225209e+00,    2.641176e+01,   -9.749279e+00
   10669,   -2.225209e+00,    2.512941e+01,   -9.749279e+00
   10670,   -2.225209e+00,    2.384706e+01,   -9.749279e+00
   10671,   -2.225209e+00,    2.256471e+01,   -9.749279e+00
   10672,   -2.225209e+00,    2.128235e+01,   -9.749279e+00
   10673,   -4.338837e+00,    4.051765e+01,   -9.009689e+00
   10674,   -4.338837e+00,    3.923529e+01,   -9.009689e+00
   10675,   -4.338837e+00,    3.795294e+01,   -9.009689e+00
   10676,   -4.338837e+00,    3.667059e+01,   -9.009689e+00
   10677,   -4.338837e+00,    3.538824e+01,   -9.009689e+00
   10678,   -4.338837e+00,    3.410588e+01,   -9.009689e+00
   10679,   -4.338837e+00,    3.282353e+01,   -9.009689e+00
   10680,   -4.338837e+00,    3.154118e+01,   -9.009689e+00
   10681,   -4.338837e+00,    3.025882e+01,   -9.009689e+00
   10682,   -4.338837e+00,    2.897647e+01,   -9.009689e+00
   10683,   -4.338837e+00,    2.769412e+01,   -9.009689e+00
   10684,   -4.338837e+00,    2.641176e+01,   -9.009689e+00
   10685,   -4.338837e+00,    2.512941e+01,   -9.009689e+00
   10686,   -4.338837e+00,    2.384706e+01,   -9.009689e+00
   10687,   -4.338837e+00,    2.256471e+01,   -9.009689e+00
   10688,   -4.338837e+00,    2.128235e+01,   -9.009689e+00
   10689,   -6.234898e+00,    4.051765e+01,   -7.818315e+00
   10690,   -6.234898e+00,    3.923529e+01,   -7.818315e+00
   10691,   -6.234898e+00,    3.795294e+01,   -7.818315e+00
   10692,   -6.234898e+00,    3.667059e+01,   -7.818315e+00
   10693,   -6.234898e+00,    3.538824e+01,   -7.818315e+00
   10694,   -6.234898e+00,    3.410588e+01,   -7.818315e+00
   10695,   -6.234898e+00,    3.282353e+01,   -7.818315e+00
   10696,   -6.234898e+00,    3.154118e+01,   -7.818315e+00
   10697,   -6.234898e+00,    3.025882e+01,   -7.818315e+00
   10698,   -6.234898e+00,    2.897647e+01,   -7.818315e+00
   10699,   -6.234898e+00,    2.769412e+01,   -7.818315e+00
   10700,   -6.234898e+00,    2.641176e+01,   -7.818315e+00
   10701,   -6.234898e+00,    2.512941e+01,   -7.818315e+00
   10702,   -6.234898e+00,    2.384706e+01,   -7.818315e+00
   10703,   -6.234898e+00,    2.256471e+01,   -7.818315e+00
   10704,   -6.234898e+00,    2.128235e+01,   -7.818315e+00
   10705,   -7.818315e+00,    4.051765e+01,   -6.234898e+00
   10706,   -7.818315e+00,    3.923529e+01,   -6.234898e+00
   10707,   -7.818315e+00,    3.795294e+01,   -6.234898e+00
   10708,   -7.818315e+00,    3.667059e+01,   -6.234898e+00
   10709,   -7.818315e+00,    3.538824e+01,   -6.234898e+00
   10710,   -7.818315e+00,    3.410588e+01,   -6.234898e+00
   10711,   -7.818315e+00,    3.282353e+01,   -6.234898e+00
   10712,   -7.818315e+00,    3.154118e+01,   -6.234898e+00
   10713,   -7.818315e+00,    3.025882e+01,   -6.234898e+00
   10714,   -7.818315e+00,    2.897647e+01,   -6.234898e+00
   10715,   -7.818315e+00,    2.769412e+01,   -6.234898e+00
   10716,   -7.818315e+00,    2.641176e+01,   -6.234898e+00
   10717,   -7.818315e+00,    2.512941e+01,   -6.234898e+00
   10718,   -7.818315e+00,    2.384706e+01,   -6.234898e+00
   10719,   -7.818315e+00,    2.256471e+01,   -6.234898e+00
   10720,   -7.818315e+00,    2.128235e+01,   -6.234898e+00
   10721,   -9.009689e+00,    4.051765e+01,   -4.338837e+00
   10722,   -9.009689e+00,    3.923529e+01,   -4.338837e+00
   10723,   -9.009689e+00,    3.795294e+01,   -4.338837e+00
   10724,   -9.009689e+00,    3.667059e+01,   -4.338837e+00
   10725,   -9.009689e+00,    3.538824e+01,   -4.338837e+00
   10726,   -9.009689e+00,    3.410588e+01,   -4.338837e+00
   10727,   -9.009689e+00,    3.282353e+01,   -4.338837e+00
   10728,   -9.009689e+00,    3.154118e+01,   -4.338837e+00
   10729,   -9.009689e+00,    3.025882e+01,   -4.338837e+00
   10730,   -9.009689e+00,    2.897647e+01,   -4.338837e+00
   10731,   -9.009689e+00,    2.769412e+01,   -4.338837e+00
   10732,   -9.009689e+00,    2.641176e+01,   -4.338837e+00
   10733,   -9.009689e+00,    2.512941e+01,   -4.338837e+00
   10734,   -9.009689e+00,    2.384706e+01,   -4.338837e+00
   10735,   -9.009689e+00,    2.256471e+01,   -4.338837e+00
   10736,   -9.009689e+00,    2.128235e+01,   -4.338837e+00
   10737,   -9.749279e+00,    4.051765e+01,   -2.225209e+00
   10738,   -9.749279e+00,    3.923529e+01,   -2.225209e+00
   10739,   -9.749279e+00,    3.795294e+01,   -2.225209e+00
   10740,   -9.749279e+00,    3.667059e+01,   -2.225209e+00
   10741,   -9.749279e+00,    3.538824e+01,   -2.225209e+00
   10742,   -9.749279e+00,    3.410588e+01,   -2.225209e+00
   10743,   -9.749279e+00,    3.282353e+01,   -2.225209e+00
   10744,   -9.749279e+00,    3.154118e+01,   -2.225209e+00
   10745,   -9.749279e+00,    3.025882e+01,   -2.225209e+00
   10746,   -9.749279e+00,    2.897647e+01,   -2.225209e+00
   10747,   -9.749279e+00,    2.769412e+01,   -2.225209e+00
   10748,   -9.749279e+00,    2.641176e+01,   -2.225209e+00
   10749,   -9.749279e+00,    2.512941e+01,   -2.225209e+00
   10750,   -9.749279e+00,    2.384706e+01,   -2.225209e+00
   10751,   -9.749279e+00,    2.256471e+01,   -2.225209e+00
   10752,   -9.749279e+00,    2.128235e+01,   -2.225209e+00
   10753,   -2.000000e+00,    4.180000e+01,    0.000000e+00
   10754,   -4.000000e+00,    4.180000e+01,    0.000000e+00
   10755,   -6.000000e+00,    4.180000e+01,    0.000000e+00
   10756,   -8.000000e+00,    4.180000e+01,    0.000000e+00
   10757,   -2.000000e+00,    2.128235e+01,    0.000000e+00
   10758,   -2.000000e+00,    2.256471e+01,    0.000000e+00
   10759,   -2.000000e+00,    2.384706e+01,    0.000000e+00
   10760,   -2.000000e+00,    2.512941e+01,    0.000000e+00
   10761,   -2.000000e+00,    2.641176e+01,    0.000000e+00
   10762,   -2.000000e+00,    2.769412e+01,    0.000000e+00
   10763,   -2.000000e+00,    2.897647e+01,    0.000000e+00
   10764,   -2.000000e+00,    3.025882e+01,    0.000000e+00
   10765,   -2.000000e+00,    3.154118e+01,    0.000000e+00
   10766,   -2.000000e+00,    3.282353e+01,    0.000000e+00
   10767,   -2.000000e+00,    3.410588e+01,    0.000000e+00
   10768,   -2.000000e+00,    3.538824e+01,    0.000000e+00
   10769,   -2.000000e+00,    3.667059e+01,    0.000000e+00
   10770,   -2.000000e+00,    3.795294e+01,    0.000000e+00
   10771,   -2.000000e+00,    3.923529e+01,    0.000000e+00
   10772,   -2.000000e+00,    4.051765e+01,    0.000000e+00
   10773,   -4.000000e+00,    2.128235e+01,    0.000000e+00
   10774,   -4.000000e+00,    2.256471e+01,    0.000000e+00
   10775,   -4.000000e+00,    2.384706e+01,    0.000000e+00
   10776,   -4.000000e+00,    2.512941e+01,    0.000000e+00
   10777,   -4.000000e+00,    2.641176e+01,    0.000000e+00
   10778,   -4.000000e+00,    2.769412e+01,    0.000000e+00
   10779,   -4.000000e+00,    2.897647e+01,    0.000000e+00
   10780,   -4.000000e+00,    3.025882e+01,    0.000000e+00
   10781,   -4.000000e+00,    3.154118e+01,    0.000000e+00
   10782,   -4.000000e+00,    3.282353e+01,    0.000000e+00
   10783,   -4.000000e+00,    3.410588e+01,    0.000000e+00
   10784,   -4.000000e+00,    3.538824e+01,    0.000000e+00
   10785,   -4.000000e+00,    3.667059e+01,    0.000000e+00
   10786,   -4.000000e+00,    3.795294e+01,    0.000000e+00
   10787,   -4.000000e+00,    3.923529e+01,    0.000000e+00
   10788,   -4.000000e+00,    4.051765e+01,    0.000000e+00
   10789,   -6.000000e+00,    2.128235e+01,    0.000000e+00
   10790,   -6.000000e+00,    2.256471e+01,    0.000000e+00
   10791,   -6.000000e+00,    2.384706e+01,    0.000000e+00
   10792,   -6.000000e+00,    2.512941e+01,    0.000000e+00
   10793,   -6.000000e+00,    2.641176e+01,    0.000000e+00
   10794,   -6.000000e+00,    2.769412e+01,    0.000000e+00
   10795,   -6.000000e+00,    2.897647e+01,    0.000000e+00
   10796,   -6.000000e+00,    3.025882e+01,    0.000000e+00
   10797,   -6.000000e+00,    3.154118e+01,    0.000000e+00
   10798,   -6.000000e+00,    3.282353e+01,    0.000000e+00
   10799,   -6.000000e+00,    3.410588e+01,    0.000000e+00
   10800,   -6.000000e+00,    3.538824e+01,    0.000000e+00
   10801,   -6.000000e+00,    3.667059e+01,    0.000000e+00
   10802,   -6.000000e+00,    3.795294e+01,    0.000000e+00
   10803,   -6.000000e+00,    3.923529e+01,    0.000000e+00
   10804,   -6.000000e+00,    4.051765e+01,    0.000000e+00
   10805,   -8.000000e+00,    2.128235e+01,    0.000000e+00
   10806,   -8.000000e+00,    2.256471e+01,    0.000000e+00
   10807,   -8.000000e+00,    2.384706e+01,    0.000000e+00
   10808,   -8.000000e+00,    2.512941e+01,    0.000000e+00
   10809,   -8.000000e+00,    2.641176e+01,    0.000000e+00
   10810,   -8.000000e+00,    2.769412e+01,    0.000000e+00
   10811,   -8.000000e+00,    2.897647e+01,    0.000000e+00
   10812,   -8.000000e+00,    3.025882e+01,    0.000000e+00
   10813,   -8.000000e+00,    3.154118e+01,    0.000000e+00
   10814,   -8.000000e+00,    3.282353e+01,    0.000000e+00
   10815,   -8.000000e+00,    3.410588e+01,    0.000000e+00
   10816,   -8.000000e+00,    3.538824e+01,    0.000000e+00
   10817,   -8.000000e+00,    3.667059e+01,    0.000000e+00
   10818,   -8.000000e+00,    3.795294e+01,    0.000000e+00
   10819,   -8.000000e+00,    3.923529e+01,    0.000000e+00
   10820,   -8.000000e+00,    4.051765e+01,    0.000000e+00
   10821,   -7.639033e+00,    2.128235e+01,   -2.024699e+00
   10822,   -5.713434e+00,    2.128235e+01,   -2.015796e+00
   10823,   -3.835050e+00,    2.128235e+01,   -2.141056e+00
   10824,   -1.907728e+00,    2.128235e+01,   -2.295649e+00
   10825,   -7.208559e+00,    2.128235e+01,   -3.898144e+00
   10826,   -5.521504e+00,    2.128235e+01,   -3.990354e+00
   10827,   -3.758587e+00,    2.128235e+01,   -4.291406e+00
   10828,   -1.904575e+00,    2.128235e+01,   -4.642807e+00
   10829,   -6.830325e+00,    2.128235e+01,   -5.307483e+00
   10830,   -5.539967e+00,    2.128235e+01,   -5.836899e+00
   10831,   -3.870860e+00,    2.128235e+01,   -6.487469e+00
   10832,   -1.975771e+00,    2.128235e+01,   -7.050566e+00
   10833,   -7.639033e+00,    2.256471e+01,   -2.024699e+00
   10834,   -5.713434e+00,    2.256471e+01,   -2.015796e+00
   10835,   -3.835050e+00,    2.256471e+01,   -2.141056e+00
   10836,   -1.907728e+00,    2.256471e+01,   -2.295649e+00
   10837,   -7.208559e+00,    2.256471e+01,   -3.898144e+00
   10838,   -5.521504e+00,    2.256471e+01,   -3.990354e+00
   10839,   -3.758587e+00,    2.256471e+01,   -4.291406e+00
   10840,   -1.904575e+00,    2.256471e+01,   -4.642807e+00
   10841,   -6.830325e+00,    2.256471e+01,   -5.307483e+00
   10842,   -5.539967e+00,    2.256471e+01,   -5.836899e+00
   10843,   -3.870860e+00,    2.256471e+01,   -6.487469e+00
   10844,   -1.975771e+00,    2.256471e+01,   -7.050566e+00
   10845,   -7.639033e+00,    2.384706e+01,   -2.024699e+00
   10846,   -5.713434e+00,    2.384706e+01,   -2.015796e+00
   10847,   -3.835050e+00,    2.384706e+01,   -2.141056e+00
   10848,   -1.907728e+00,    2.384706e+01,   -2.295649e+00
   10849,   -7.208559e+00,    2.384706e+01,   -3.898144e+00
   10850,   -5.521504e+00,    2.384706e+01,   -3.990354e+00
   10851,   -3.758587e+00,    2.384706e+01,   -4.291406e+00
   10852,   -1.904575e+00,    2.384706e+01,   -4.642807e+00
   10853,   -6.830325e+00,    2.384706e+01,   -5.307483e+00
   10854,   -5.539967e+00,    2.384706e+01,   -5.836899e+00
   10855,   -3.870860e+00,    2.384706e+01,   -6.487469e+00
   10856,   -1.975771e+00,    2.384706e+01,   -7.050566e+00
   10857,   -7.639033e+00,    2.512941e+01,   -2.024699e+00
   10858,   -5.713434e+00,    2.512941e+01,   -2.015796e+00
   10859,   -3.835050e+00,    2.512941e+01,   -2.141056e+00
   10860,   -1.907728e+00,    2.512941e+01,   -2.295649e+00
   10861,   -7.208559e+00,    2.512941e+01,   -3.898144e+00
   10862,   -5.521504e+00,    2.512941e+01,   -3.990354e+00
   10863,   -3.758587e+00,    2.512941e+01,   -4.291406e+00
   10864,   -1.904575e+00,    2.512941e+01,   -4.642807e+00
   10865,   -6.830325e+00,    2.512941e+01,   -5.307483e+00
   10866,   -5.539967e+00,    2.512941e+01,   -5.836899e+00
   10867,   -3.870860e+00,    2.512941e+01,   -6.487469e+00
   10868,   -1.975771e+00,    2.512941e+01,   -7.050566e+00
   10869,   -7.639033e+00,    2.641176e+01,   -2.024699e+00
   10870,   -5.713434e+00,    2.641176e+01,   -2.015796e+00
   10871,   -3.835050e+00,    2.641176e+01,   -2.141056e+00
   10872,   -1.907728e+00,    2.641176e+01,   -2.295649e+00
   10873,   -7.208559e+00,    2.641176e+01,   -3.898144e+00
   10874,   -5.521504e+00,    2.641176e+01,   -3.990354e+00
   10875,   -3.758587e+00,    2.641176e+01,   -4.291406e+00
   10876,   -1.904575e+00,    2.641176e+01,   -4.642807e+00
   10877,   -6.830325e+00,    2.641176e+01,   -5.307483e+00
   10878,   -5.539967e+00,    2.641176e+01,   -5.836899e+00
   10879,   -3.870860e+00,    2.641176e+01,   -6.487469e+00
   10880,   -1.975771e+00,    2.641176e+01,   -7.050566e+00
   10881,   -7.639033e+00,    2.769412e+01,   -2.024699e+00
   10882,   -5.713434e+00,    2.769412e+01,   -2.015796e+00
   10883,   -3.835050e+00,    2.769412e+01,   -2.141056e+00
   10884,   -1.907728e+00,    2.769412e+01,   -2.295649e+00
   10885,   -7.208559e+00,    2.769412e+01,   -3.898144e+00
   10886,   -5.521504e+00,    2.769412e+01,   -3.990354e+00
   10887,   -3.758587e+00,    2.769412e+01,   -4.291406e+00
   10888,   -1.904575e+00,    2.769412e+01,   -4.642807e+00
   10889,   -6.830325e+00,    2.769412e+01,   -5.307483e+00
   10890,   -5.539967e+00,    2.769412e+01,   -5.836899e+00
   10891,   -3.870860e+00,    2.769412e+01,   -6.487469e+00
   10892,   -1.975771e+00,    2.769412e+01,   -7.050566e+00
   10893,   -7.639033e+00,    2.897647e+01,   -2.024699e+00
   10894,   -5.713434e+00,    2.897647e+01,   -2.015796e+00
   10895,   -3.835050e+00,    2.897647e+01,   -2.141056e+00
   10896,   -1.907728e+00,    2.897647e+01,   -2.295649e+00
   10897,   -7.208559e+00,    2.897647e+01,   -3.898144e+00
   10898,   -5.521504e+00,    2.897647e+01,   -3.990354e+00
   10899,   -3.758587e+00,    2.897647e+01,   -4.291406e+00
   10900,   -1.904575e+00,    2.897647e+01,   -4.642807e+00
   10901,   -6.830325e+00,    2.897647e+01,   -5.307483e+00
   10902,   -5.539967e+00,    2.897647e+01,   -5.836899e+00
   10903,   -3.870860e+00,    2.897647e+01,   -6.487469e+00
   10904,   -1.975771e+00,    2.897647e+01,   -7.050566e+00
   10905,   -7.639033e+00,    3.025882e+01,   -2.024699e+00
   10906,   -5.713434e+00,    3.025882e+01,   -2.015796e+00
   10907,   -3.835050e+00,    3.025882e+01,   -2.141056e+00
   10908,   -1.907728e+00,    3.025882e+01,   -2.295649e+00
   10909,   -7.208559e+00,    3.025882e+01,   -3.898144e+00
   10910,   -5.521504e+00,    3.025882e+01,   -3.990354e+00
   10911,   -3.758587e+00,    3.025882e+01,   -4.291406e+00
   10912,   -1.904575e+00,    3.025882e+01,   -4.642807e+00
   10913,   -6.830325e+00,    3.025882e+01,   -5.307483e+00
   10914,   -5.539967e+00,    3.025882e+01,   -5.836899e+00
   10915,   -3.870860e+00,    3.025882e+01,   -6.487469e+00
   10916,   -1.975771e+00,    3.025882e+01,   -7.050566e+00
   10917,   -7.639033e+00,    3.154118e+01,   -2.024699e+00
   10918,   -5.713434e+00,    3.154118e+01,   -2.015796e+00
   10919,   -3.835050e+00,    3.154118e+01,   -2.141056e+00
   10920,   -1.907728e+00,    3.154118e+01,   -2.295649e+00
   10921,   -7.208559e+00,    3.154118e+01,   -3.898144e+00
   10922,   -5.521504e+00,    3.154118e+01,   -3.990354e+00
   10923,   -3.758587e+00,    3.154118e+01,   -4.291406e+00
   10924,   -1.904575e+00,    3.154118e+01,   -4.642807e+00
   10925,   -6.830325e+00,    3.154118e+01,   -5.307483e+00
   10926,   -5.539967e+00,    3.154118e+01,   -5.836899e+00
   10927,   -3.870860e+00,    3.154118e+01,   -6.487469e+00
   10928,   -1.975771e+00,    3.154118e+01,   -7.050566e+00
   10929,   -7.639033e+00,    3.282353e+01,   -2.024699e+00
   10930,   -5.713434e+00,    3.282353e+01,   -2.015796e+00
   10931,   -3.835050e+00,    3.282353e+01,   -2.141056e+00
   10932,   -1.907728e+00,    3.282353e+01,   -2.295649e+00
   10933,   -7.208559e+00,    3.282353e+01,   -3.898144e+00
   10934,   -5.521504e+00,    3.282353e+01,   -3.990354e+00
   10935,   -3.758587e+00,    3.282353e+01,   -4.291406e+00
   10936,   -1.904575e+00,    3.282353e+01,   -4.642807e+00
   10937,   -6.830325e+00,    3.282353e+01,   -5.307483e+00
   10938,   -5.539967e+00,    3.282353e+01,   -5.836899e+00
   10939,   -3.870860e+00,    3.282353e+01,   -6.487469e+00
   10940,   -1.975771e+00,    3.282353e+01,   -7.050566e+00
   10941,   -7.639033e+00,    3.410588e+01,   -2.024699e+00
   10942,   -5.713434e+00,    3.410588e+01,   -2.015796e+00
   10943,   -3.835050e+00,    3.410588e+01,   -2.141056e+00
   10944,   -1.907728e+00,    3.410588e+01,   -2.295649e+00
   10945,   -7.208559e+00,    3.410588e+01,   -3.898144e+00
   10946,   -5.521504e+00,    3.410588e+01,   -3.990354e+00
   10947,   -3.758587e+00,    3.410588e+01,   -4.291406e+00
   10948,   -1.904575e+00,    3.410588e+01,   -4.642807e+00
   10949,   -6.830325e+00,    3.410588e+01,   -5.307483e+00
   10950,   -5.539967e+00,    3.410588e+01,   -5.836899e+00
   10951,   -3.870860e+00,    3.410588e+01,   -6.487469e+00
   10952,   -1.975771e+00,    3.410588e+01,   -7.050566e+00
   10953,   -7.639033e+00,    3.538824e+01,   -2.024699e+00
   10954,   -5.713434e+00,    3.538824e+01,   -2.015796e+00
   10955,   -3.835050e+00,    3.538824e+01,   -2.141056e+00
   10956,   -1.907728e+00,    3.538824e+01,   -2.295649e+00
   10957,   -7.208559e+00,    3.538824e+01,   -3.898144e+00
   10958,   -5.521504e+00,    3.538824e+01,   -3.990354e+00
   10959,   -3.758587e+00,    3.538824e+01,   -4.291406e+00
   10960,   -1.904575e+00,    3.538824e+01,   -4.642807e+00
   10961,   -6.830325e+00,    3.538824e+01,   -5.307483e+00
   10962,   -5.539967e+00,    3.538824e+01,   -5.836899e+00
   10963,   -3.870860e+00,    3.538824e+01,   -6.487469e+00
   10964,   -1.975771e+00,    3.538824e+01,   -7.050566e+00
   10965,   -7.639033e+00,    3.667059e+01,   -2.024699e+00
   10966,   -5.713434e+00,    3.667059e+01,   -2.015796e+00
   10967,   -3.835050e+00,    3.667059e+01,   -2.141056e+00
   10968,   -1.907728e+00,    3.667059e+01,   -2.295649e+00
   10969,   -7.208559e+00,    3.667059e+01,   -3.898144e+00
   10970,   -5.521504e+00,    3.667059e+01,   -3.990354e+00
   10971,   -3.758587e+00,    3.667059e+01,   -4.291406e+00
   10972,   -1.904575e+00,    3.667059e+01,   -4.642807e+00
   10973,   -6.830325e+00,    3.667059e+01,   -5.307483e+00
   10974,   -5.539967e+00,    3.667059e+01,   -5.836899e+00
   10975,   -3.870860e+00,    3.667059e+01,   -6.487469e+00
   10976,   -1.975771e+00,    3.667059e+01,   -7.050566e+00
   10977,   -7.639033e+00,    3.795294e+01,   -2.024699e+00
   10978,   -5.713434e+00,    3.795294e+01,   -2.015796e+00
   10979,   -3.835050e+00,    3.795294e+01,   -2.141056e+00
   10980,   -1.907728e+00,    3.795294e+01,   -2.295649e+00
   10981,   -7.208559e+00,    3.795294e+01,   -3.898144e+00
   10982,   -5.521504e+00,    3.795294e+01,   -3.990354e+00
   10983,   -3.758587e+00,    3.795294e+01,   -4.291406e+00
   10984,   -1.904575e+00,    3.795294e+01,   -4.642807e+00
   10985,   -6.830325e+00,    3.795294e+01,   -5.307483e+00
   10986,   -5.539967e+00,    3.795294e+01,   -5.836899e+00
   10987,   -3.870860e+00,    3.795294e+01,   -6.487469e+00
   10988,   -1.975771e+00,    3.795294e+01,   -7.050566e+00
   10989,   -7.639033e+00,    3.923529e+01,   -2.024699e+00
   10990,   -5.713434e+00,    3.923529e+01,   -2.015796e+00
   10991,   -3.835050e+00,    3.923529e+01,   -2.141056e+00
   10992,   -1.907728e+00,    3.923529e+01,   -2.295649e+00
   10993,   -7.208559e+00,    3.923529e+01,   -3.898144e+00
   10994,   -5.521504e+00,    3.923529e+01,   -3.990354e+00
   10995,   -3.758587e+00,    3.923529e+01,   -4.291406e+00
   10996,   -1.904575e+00,    3.923529e+01,   -4.642807e+00
   10997,   -6.830325e+00,    3.923529e+01,   -5.307483e+00
   10998,   -5.539967e+00,    3.923529e+01,   -5.836899e+00
   10999,   -3.870860e+00,    3.923529e+01,   -6.487469e+00
   11000,   -1.975771e+00,    3.923529e+01,   -7.050566e+00
   11001,   -7.639033e+00,    4.051765e+01,   -2.024699e+00
   11002,   -5.713434e+00,    4.051765e+01,   -2.015796e+00
   11003,   -3.835050e+00,    4.051765e+01,   -2.141056e+00
   11004,   -1.907728e+00,    4.051765e+01,   -2.295649e+00
   11005,   -7.208559e+00,    4.051765e+01,   -3.898144e+00
   11006,   -5.521504e+00,    4.051765e+01,   -3.990354e+00
   11007,   -3.758587e+00,    4.051765e+01,   -4.291406e+00
   11008,   -1.904575e+00,    4.051765e+01,   -4.642807e+00
   11009,   -6.830325e+00,    4.051765e+01,   -5.307483e+00
   11010,   -5.539967e+00,    4.051765e+01,   -5.836899e+00
   11011,   -3.870860e+00,    4.051765e+01,   -6.487469e+00
   11012,   -1.975771e+00,    4.051765e+01,   -7.050566e+00
   11013,   -7.639033e+00,    4.180000e+01,   -2.024699e+00
   11014,   -5.713434e+00,    4.180000e+01,   -2.015796e+00
   11015,   -3.835050e+00,    4.180000e+01,   -2.141056e+00
   11016,   -1.907728e+00,    4.180000e+01,   -2.295649e+00
   11017,   -7.208559e+00,    4.180000e+01,   -3.898144e+00
   11018,   -5.521504e+00,    4.180000e+01,   -3.990354e+00
   11019,   -3.758587e+00,    4.180000e+01,   -4.291406e+00
   11020,   -1.904575e+00,    4.180000e+01,   -4.642807e+00
   11021,   -6.830325e+00,    4.180000e+01,   -5.307483e+00
   11022,   -5.539967e+00,    4.180000e+01,   -5.836899e+00
   11023,   -3.870860e+00,    4.180000e+01,   -6.487469e+00
   11024,   -1.975771e+00,    4.180000e+01,   -7.050566e+00
   11025,   -1.000000e+01,    6.666670e+00,   -2.496239e-15
   11026,   -9.749279e+00,    6.666670e+00,   -2.225209e+00
   11027,   -9.009689e+00,    6.666670e+00,   -4.338837e+00
   11028,   -7.818315e+00,    6.666670e+00,   -6.234898e+00
   11029,   -6.234898e+00,    6.666670e+00,   -7.818315e+00
   11030,   -4.338837e+00,    6.666670e+00,   -9.009689e+00
   11031,   -2.225209e+00,    6.666670e+00,   -9.749279e+00
   11032,   -1.000000e+01,    1.878788e+01,   -3.339945e-16
   11033,   -1.000000e+01,    1.757576e+01,   -2.597735e-16
   11034,   -1.000000e+01,    1.636364e+01,   -1.855525e-16
   11035,   -1.000000e+01,    1.515152e+01,   -1.113315e-16
   11036,   -1.000000e+01,    1.393940e+01,   -3.711050e-17
   11037,   -1.000000e+01,    1.272727e+01,    3.711050e-17
   11038,   -1.000000e+01,    1.151515e+01,    1.113315e-16
   11039,   -1.000000e+01,    1.030303e+01,    1.855525e-16
   11040,   -1.000000e+01,    9.090912e+00,    2.597735e-16
   11041,   -1.000000e+01,    7.878791e+00,    3.339945e-16
   11042,   -2.225209e+00,    1.878788e+01,   -9.749279e+00
   11043,   -2.225209e+00,    1.757576e+01,   -9.749279e+00
   11044,   -2.225209e+00,    1.636364e+01,   -9.749279e+00
   11045,   -2.225209e+00,    1.515152e+01,   -9.749279e+00
   11046,   -2.225209e+00,    1.393940e+01,   -9.749279e+00
   11047,   -2.225209e+00,    1.272727e+01,   -9.749279e+00
   11048,   -2.225209e+00,    1.151515e+01,   -9.749279e+00
   11049,   -2.225209e+00,    1.030303e+01,   -9.749279e+00
   11050,   -2.225209e+00,    9.090912e+00,   -9.749279e+00
   11051,   -2.225209e+00,    7.878791e+00,   -9.749279e+00
   11052,   -4.338837e+00,    1.878788e+01,   -9.009689e+00
   11053,   -4.338837e+00,    1.757576e+01,   -9.009689e+00
   11054,   -4.338837e+00,    1.636364e+01,   -9.009689e+00
   11055,   -4.338837e+00,    1.515152e+01,   -9.009689e+00
   11056,   -4.338837e+00,    1.393940e+01,   -9.009689e+00
   11057,   -4.338837e+00,    1.272727e+01,   -9.009689e+00
   11058,   -4.338837e+00,    1.151515e+01,   -9.009689e+00
   11059,   -4.338837e+00,    1.030303e+01,   -9.009689e+00
   11060,   -4.338837e+00,    9.090912e+00,   -9.009689e+00
   11061,   -4.338837e+00,    7.878791e+00,   -9.009689e+00
   11062,   -6.234898e+00,    1.878788e+01,   -7.818315e+00
   11063,   -6.234898e+00,    1.757576e+01,   -7.818315e+00
   11064,   -6.234898e+00,    1.636364e+01,   -7.818315e+00
   11065,   -6.234898e+00,    1.515152e+01,   -7.818315e+00
   11066,   -6.234898e+00,    1.393940e+01,   -7.818315e+00
   11067,   -6.234898e+00,    1.272727e+01,   -7.818315e+00
   11068,   -6.234898e+00,    1.151515e+01,   -7.818315e+00
   11069,   -6.234898e+00,    1.030303e+01,   -7.818315e+00
   11070,   -6.234898e+00,    9.090912e+00,   -7.818315e+00
   11071,   -6.234898e+00,    7.878791e+00,   -7.818315e+00
   11072,   -7.818315e+00,    1.878788e+01,   -6.234898e+00
   11073,   -7.818315e+00,    1.757576e+01,   -6.234898e+00
   11074,   -7.818315e+00,    1.636364e+01,   -6.234898e+00
   11075,   -7.818315e+00,    1.515152e+01,   -6.234898e+00
   11076,   -7.818315e+00,    1.393940e+01,   -6.234898e+00
   11077,   -7.818315e+00,    1.272727e+01,   -6.234898e+00
   11078,   -7.818315e+00,    1.151515e+01,   -6.234898e+00
   11079,   -7.818315e+00,    1.030303e+01,   -6.234898e+00
   11080,   -7.818315e+00,    9.090912e+00,   -6.234898e+00
   11081,   -7.818315e+00,    7.878791e+00,   -6.234898e+00
   11082,   -9.009689e+00,    1.878788e+01,   -4.338837e+00
   11083,   -9.009689e+00,    1.757576e+01,   -4.338837e+00
   11084,   -9.009689e+00,    1.636364e+01,   -4.338837e+00
   11085,   -9.009689e+00,    1.515152e+01,   -4.338837e+00
   11086,   -9.009689e+00,    1.393940e+01,   -4.338837e+00
   11087,   -9.009689e+00,    1.272727e+01,   -4.338837e+00
   11088,   -9.009689e+00,    1.151515e+01,   -4.338837e+00
   11089,   -9.009689e+00,    1.030303e+01,   -4.338837e+00
   11090,   -9.009689e+00,    9.090912e+00,   -4.338837e+00
   11091,   -9.009689e+00,    7.878791e+00,   -4.338837e+00
   11092,   -9.749279e+00,    1.878788e+01,   -2.225209e+00
   11093,   -9.749279e+00,    1.757576e+01,   -2.225209e+00
   11094,   -9.749279e+00,    1.636364e+01,   -2.225209e+00
   11095,   -9.749279e+00,    1.515152e+01,   -2.225209e+00
   11096,   -9.749279e+00,    1.393940e+01,   -2.225209e+00
   11097,   -9.749279e+00,    1.272727e+01,   -2.225209e+00
   11098,   -9.749279e+00,    1.151515e+01,   -2.225209e+00
   11099,   -9.749279e+00,    1.030303e+01,   -2.225209e+00
   11100,   -9.749279e+00,    9.090912e+00,   -2.225209e+00
   11101,   -9.749279e+00,    7.878791e+00,   -2.225209e+00
   11102,   -2.000000e+00,    6.666670e+00,    0.000000e+00
   11103,   -4.000000e+00,    6.666670e+00,    0.000000e+00
   11104,   -6.000000e+00,    6.666670e+00,    0.000000e+00
   11105,   -8.000000e+00,    6.666670e+00,    0.000000e+00
   11106,   -2.000000e+00,    7.878791e+00,    0.000000e+00
   11107,   -2.000000e+00,    9.090912e+00,    0.000000e+00
   11108,   -2.000000e+00,    1.030303e+01,    0.000000e+00
   11109,   -2.000000e+00,    1.151515e+01,    0.000000e+00
   11110,   -2.000000e+00,    1.272727e+01,    0.000000e+00
   11111,   -2.000000e+00,    1.393940e+01,    0.000000e+00
   11112,   -2.000000e+00,    1.515152e+01,    0.000000e+00
   11113,   -2.000000e+00,    1.636364e+01,    0.000000e+00
   11114,   -2.000000e+00,    1.757576e+01,    0.000000e+00
   11115,   -2.000000e+00,    1.878788e+01,    0.000000e+00
   11116,   -4.000000e+00,    7.878791e+00,    0.000000e+00
   11117,   -4.000000e+00,    9.090912e+00,    0.000000e+00
   11118,   -4.000000e+00,    1.030303e+01,    0.000000e+00
   11119,   -4.000000e+00,    1.151515e+01,    0.000000e+00
   11120,   -4.000000e+00,    1.272727e+01,    0.000000e+00
   11121,   -4.000000e+00,    1.393940e+01,    0.000000e+00
   11122,   -4.000000e+00,    1.515152e+01,    0.000000e+00
   11123,   -4.000000e+00,    1.636364e+01,    0.000000e+00
   11124,   -4.000000e+00,    1.757576e+01,    0.000000e+00
   11125,   -4.000000e+00,    1.878788e+01,    0.000000e+00
   11126,   -6.000000e+00,    7.878791e+00,    0.000000e+00
   11127,   -6.000000e+00,    9.090912e+00,    0.000000e+00
   11128,   -6.000000e+00,    1.030303e+01,    0.000000e+00
   11129,   -6.000000e+00,    1.151515e+01,    0.000000e+00
   11130,   -6.000000e+00,    1.272727e+01,    0.000000e+00
   11131,   -6.000000e+00,    1.393940e+01,    0.000000e+00
   11132,   -6.000000e+00,    1.515152e+01,    0.000000e+00
   11133,   -6.000000e+00,    1.636364e+01,    0.000000e+00
   11134,   -6.000000e+00,    1.757576e+01,    0.000000e+00
   11135,   -6.000000e+00,    1.878788e+01,    0.000000e+00
   11136,   -8.000000e+00,    7.878791e+00,    0.000000e+00
   11137,   -8.000000e+00,    9.090912e+00,    0.000000e+00
   11138,   -8.000000e+00,    1.030303e+01,    0.000000e+00
   11139,   -8.000000e+00,    1.151515e+01,    0.000000e+00
   11140,   -8.000000e+00,    1.272727e+01,    0.000000e+00
   11141,   -8.000000e+00,    1.393940e+01,    0.000000e+00
   11142,   -8.000000e+00,    1.515152e+01,    0.000000e+00
   11143,   -8.000000e+00,    1.636364e+01,    0.000000e+00
   11144,   -8.000000e+00,    1.757576e+01,    0.000000e+00
   11145,   -8.000000e+00,    1.878788e+01,    0.000000e+00
   11146,   -5.713434e+00,    1.878788e+01,   -2.015796e+00
   11147,   -7.639033e+00,    1.878788e+01,   -2.024699e+00
   11148,   -3.835050e+00,    1.878788e+01,   -2.141056e+00
   11149,   -1.907728e+00,    1.878788e+01,   -2.295649e+00
   11150,   -5.521504e+00,    1.878788e+01,   -3.990354e+00
   11151,   -7.208559e+00,    1.878788e+01,   -3.898144e+00
   11152,   -3.758587e+00,    1.878788e+01,   -4.291406e+00
   11153,   -1.904575e+00,    1.878788e+01,   -4.642807e+00
   11154,   -5.539967e+00,    1.878788e+01,   -5.836899e+00
   11155,   -6.830325e+00,    1.878788e+01,   -5.307483e+00
   11156,   -3.870860e+00,    1.878788e+01,   -6.487469e+00
   11157,   -1.975771e+00,    1.878788e+01,   -7.050566e+00
   11158,   -5.713434e+00,    1.757576e+01,   -2.015796e+00
   11159,   -7.639033e+00,    1.757576e+01,   -2.024699e+00
   11160,   -3.835050e+00,    1.757576e+01,   -2.141056e+00
   11161,   -1.907728e+00,    1.757576e+01,   -2.295649e+00
   11162,   -5.521504e+00,    1.757576e+01,   -3.990354e+00
   11163,   -7.208559e+00,    1.757576e+01,   -3.898144e+00
   11164,   -3.758587e+00,    1.757576e+01,   -4.291406e+00
   11165,   -1.904575e+00,    1.757576e+01,   -4.642807e+00
   11166,   -5.539967e+00,    1.757576e+01,   -5.836899e+00
   11167,   -6.830325e+00,    1.757576e+01,   -5.307483e+00
   11168,   -3.870860e+00,    1.757576e+01,   -6.487469e+00
   11169,   -1.975771e+00,    1.757576e+01,   -7.050566e+00
   11170,   -5.713434e+00,    1.636364e+01,   -2.015796e+00
   11171,   -7.639033e+00,    1.636364e+01,   -2.024699e+00
   11172,   -3.835050e+00,    1.636364e+01,   -2.141056e+00
   11173,   -1.907728e+00,    1.636364e+01,   -2.295649e+00
   11174,   -5.521504e+00,    1.636364e+01,   -3.990354e+00
   11175,   -7.208559e+00,    1.636364e+01,   -3.898144e+00
   11176,   -3.758587e+00,    1.636364e+01,   -4.291406e+00
   11177,   -1.904575e+00,    1.636364e+01,   -4.642807e+00
   11178,   -5.539967e+00,    1.636364e+01,   -5.836899e+00
   11179,   -6.830325e+00,    1.636364e+01,   -5.307483e+00
   11180,   -3.870860e+00,    1.636364e+01,   -6.487469e+00
   11181,   -1.975771e+00,    1.636364e+01,   -7.050566e+00
   11182,   -5.713434e+00,    1.515152e+01,   -2.015796e+00
   11183,   -7.639033e+00,    1.515152e+01,   -2.024699e+00
   11184,   -3.835050e+00,    1.515152e+01,   -2.141056e+00
   11185,   -1.907728e+00,    1.515152e+01,   -2.295649e+00
   11186,   -5.521504e+00,    1.515152e+01,   -3.990354e+00
   11187,   -7.208559e+00,    1.515152e+01,   -3.898144e+00
   11188,   -3.758587e+00,    1.515152e+01,   -4.291406e+00
   11189,   -1.904575e+00,    1.515152e+01,   -4.642807e+00
   11190,   -5.539967e+00,    1.515152e+01,   -5.836899e+00
   11191,   -6.830325e+00,    1.515152e+01,   -5.307483e+00
   11192,   -3.870860e+00,    1.515152e+01,   -6.487469e+00
   11193,   -1.975771e+00,    1.515152e+01,   -7.050566e+00
   11194,   -5.713434e+00,    1.393940e+01,   -2.015796e+00
   11195,   -7.639033e+00,    1.393940e+01,   -2.024699e+00
   11196,   -3.835050e+00,    1.393940e+01,   -2.141056e+00
   11197,   -1.907728e+00,    1.393940e+01,   -2.295649e+00
   11198,   -5.521504e+00,    1.393940e+01,   -3.990354e+00
   11199,   -7.208559e+00,    1.393940e+01,   -3.898144e+00
   11200,   -3.758587e+00,    1.393940e+01,   -4.291406e+00
   11201,   -1.904575e+00,    1.393940e+01,   -4.642807e+00
   11202,   -5.539967e+00,    1.393940e+01,   -5.836899e+00
   11203,   -6.830325e+00,    1.393940e+01,   -5.307483e+00
   11204,   -3.870860e+00,    1.393940e+01,   -6.487469e+00
   11205,   -1.975771e+00,    1.393940e+01,   -7.050566e+00
   11206,   -5.713434e+00,    1.272727e+01,   -2.015796e+00
   11207,   -7.639033e+00,    1.272727e+01,   -2.024699e+00
   11208,   -3.835050e+00,    1.272727e+01,   -2.141056e+00
   11209,   -1.907728e+00,    1.272727e+01,   -2.295649e+00
   11210,   -5.521504e+00,    1.272727e+01,   -3.990354e+00
   11211,   -7.208559e+00,    1.272727e+01,   -3.898144e+00
   11212,   -3.758587e+00,    1.272727e+01,   -4.291406e+00
   11213,   -1.904575e+00,    1.272727e+01,   -4.642807e+00
   11214,   -5.539967e+00,    1.272727e+01,   -5.836899e+00
   11215,   -6.830325e+00,    1.272727e+01,   -5.307483e+00
   11216,   -3.870860e+00,    1.272727e+01,   -6.487469e+00
   11217,   -1.975771e+00,    1.272727e+01,   -7.050566e+00
   11218,   -5.713434e+00,    1.151515e+01,   -2.015796e+00
   11219,   -7.639033e+00,    1.151515e+01,   -2.024699e+00
   11220,   -3.835050e+00,    1.151515e+01,   -2.141056e+00
   11221,   -1.907728e+00,    1.151515e+01,   -2.295649e+00
   11222,   -5.521504e+00,    1.151515e+01,   -3.990354e+00
   11223,   -7.208559e+00,    1.151515e+01,   -3.898144e+00
   11224,   -3.758587e+00,    1.151515e+01,   -4.291406e+00
   11225,   -1.904575e+00,    1.151515e+01,   -4.642807e+00
   11226,   -5.539967e+00,    1.151515e+01,   -5.836899e+00
   11227,   -6.830325e+00,    1.151515e+01,   -5.307483e+00
   11228,   -3.870860e+00,    1.151515e+01,   -6.487469e+00
   11229,   -1.975771e+00,    1.151515e+01,   -7.050566e+00
   11230,   -5.713434e+00,    1.030303e+01,   -2.015796e+00
   11231,   -7.639033e+00,    1.030303e+01,   -2.024699e+00
   11232,   -3.835050e+00,    1.030303e+01,   -2.141056e+00
   11233,   -1.907728e+00,    1.030303e+01,   -2.295649e+00
   11234,   -5.521504e+00,    1.030303e+01,   -3.990354e+00
   11235,   -7.208559e+00,    1.030303e+01,   -3.898144e+00
   11236,   -3.758587e+00,    1.030303e+01,   -4.291406e+00
   11237,   -1.904575e+00,    1.030303e+01,   -4.642807e+00
   11238,   -5.539967e+00,    1.030303e+01,   -5.836899e+00
   11239,   -6.830325e+00,    1.030303e+01,   -5.307483e+00
   11240,   -3.870860e+00,    1.030303e+01,   -6.487469e+00
   11241,   -1.975771e+00,    1.030303e+01,   -7.050566e+00
   11242,   -5.713434e+00,    9.090912e+00,   -2.015796e+00
   11243,   -7.639033e+00,    9.090912e+00,   -2.024699e+00
   11244,   -3.835050e+00,    9.090912e+00,   -2.141056e+00
   11245,   -1.907728e+00,    9.090912e+00,   -2.295649e+00
   11246,   -5.521504e+00,    9.090912e+00,   -3.990354e+00
   11247,   -7.208559e+00,    9.090912e+00,   -3.898144e+00
   11248,   -3.758587e+00,    9.090912e+00,   -4.291406e+00
   11249,   -1.904575e+00,    9.090912e+00,   -4.642807e+00
   11250,   -5.539967e+00,    9.090912e+00,   -5.836899e+00
   11251,   -6.830325e+00,    9.090912e+00,   -5.307483e+00
   11252,   -3.870860e+00,    9.090912e+00,   -6.487469e+00
   11253,   -1.975771e+00,    9.090912e+00,   -7.050566e+00
   11254,   -5.713434e+00,    7.878791e+00,   -2.015796e+00
   11255,   -7.639033e+00,    7.878791e+00,   -2.024699e+00
   11256,   -3.835050e+00,    7.878791e+00,   -2.141056e+00
   11257,   -1.907728e+00,    7.878791e+00,   -2.295649e+00
   11258,   -5.521504e+00,    7.878791e+00,   -3.990354e+00
   11259,   -7.208559e+00,    7.878791e+00,   -3.898144e+00
   11260,   -3.758587e+00,    7.878791e+00,   -4.291406e+00
   11261,   -1.904575e+00,    7.878791e+00,   -4.642807e+00
   11262,   -5.539967e+00,    7.878791e+00,   -5.836899e+00
   11263,   -6.830325e+00,    7.878791e+00,   -5.307483e+00
   11264,   -3.870860e+00,    7.878791e+00,   -6.487469e+00
   11265,   -1.975771e+00,    7.878791e+00,   -7.050566e+00
   11266,   -5.713434e+00,    6.666670e+00,   -2.015796e+00
   11267,   -7.639033e+00,    6.666670e+00,   -2.024699e+00
   11268,   -3.835050e+00,    6.666670e+00,   -2.141056e+00
   11269,   -1.907728e+00,    6.666670e+00,   -2.295649e+00
   11270,   -5.521504e+00,    6.666670e+00,   -3.990354e+00
   11271,   -7.208559e+00,    6.666670e+00,   -3.898144e+00
   11272,   -3.758587e+00,    6.666670e+00,   -4.291406e+00
   11273,   -1.904575e+00,    6.666670e+00,   -4.642807e+00
   11274,   -5.539967e+00,    6.666670e+00,   -5.836899e+00
   11275,   -6.830325e+00,    6.666670e+00,   -5.307483e+00
   11276,   -3.870860e+00,    6.666670e+00,   -6.487469e+00
   11277,   -1.975771e+00,    6.666670e+00,   -7.050566e+00
   11278,   -1.000000e+01,    0.000000e+00,   -2.088023e-15
   11279,   -9.749279e+00,    0.000000e+00,   -2.225209e+00
   11280,   -9.009689e+00,    0.000000e+00,   -4.338837e+00
   11281,   -7.818315e+00,    0.000000e+00,   -6.234898e+00
   11282,   -6.234898e+00,    0.000000e+00,   -7.818315e+00
   11283,   -4.338837e+00,    0.000000e+00,   -9.009689e+00
   11284,   -2.225209e+00,    0.000000e+00,   -9.749279e+00
   11285,   -1.000000e+01,    5.333336e+00,   -1.224647e-16
   11286,   -1.000000e+01,    4.000002e+00,   -4.082158e-17
   11287,   -1.000000e+01,    2.666668e+00,    4.082158e-17
   11288,   -1.000000e+01,    1.333334e+00,    1.224647e-16
   11289,   -2.225209e+00,    5.333336e+00,   -9.749279e+00
   11290,   -2.225209e+00,    4.000002e+00,   -9.749279e+00
   11291,   -2.225209e+00,    2.666668e+00,   -9.749279e+00
   11292,   -2.225209e+00,    1.333334e+00,   -9.749279e+00
   11293,   -4.338837e+00,    5.333336e+00,   -9.009689e+00
   11294,   -4.338837e+00,    4.000002e+00,   -9.009689e+00
   11295,   -4.338837e+00,    2.666668e+00,   -9.009689e+00
   11296,   -4.338837e+00,    1.333334e+00,   -9.009689e+00
   11297,   -6.234898e+00,    5.333336e+00,   -7.818315e+00
   11298,   -6.234898e+00,    4.000002e+00,   -7.818315e+00
   11299,   -6.234898e+00,    2.666668e+00,   -7.818315e+00
   11300,   -6.234898e+00,    1.333334e+00,   -7.818315e+00
   11301,   -7.818315e+00,    5.333336e+00,   -6.234898e+00
   11302,   -7.818315e+00,    4.000002e+00,   -6.234898e+00
   11303,   -7.818315e+00,    2.666668e+00,   -6.234898e+00
   11304,   -7.818315e+00,    1.333334e+00,   -6.234898e+00
   11305,   -9.009689e+00,    5.333336e+00,   -4.338837e+00
   11306,   -9.009689e+00,    4.000002e+00,   -4.338837e+00
   11307,   -9.009689e+00,    2.666668e+00,   -4.338837e+00
   11308,   -9.009689e+00,    1.333334e+00,   -4.338837e+00
   11309,   -9.749279e+00,    5.333336e+00,   -2.225209e+00
   11310,   -9.749279e+00,    4.000002e+00,   -2.225209e+00
   11311,   -9.749279e+00,    2.666668e+00,   -2.225209e+00
   11312,   -9.749279e+00,    1.333334e+00,   -2.225209e+00
   11313,   -2.000000e+00,    0.000000e+00,    0.000000e+00
   11314,   -4.000000e+00,    0.000000e+00,    0.000000e+00
   11315,   -6.000000e+00,    0.000000e+00,    0.000000e+00
   11316,   -8.000000e+00,    0.000000e+00,    0.000000e+00
   11317,   -2.000000e+00,    1.333334e+00,    0.000000e+00
   11318,   -2.000000e+00,    2.666668e+00,    0.000000e+00
   11319,   -2.000000e+00,    4.000002e+00,    0.000000e+00
   11320,   -2.000000e+00,    5.333336e+00,    0.000000e+00
   11321,   -4.000000e+00,    1.333334e+00,    0.000000e+00
   11322,   -4.000000e+00,    2.666668e+00,    0.000000e+00
   11323,   -4.000000e+00,    4.000002e+00,    0.000000e+00
   11324,   -4.000000e+00,    5.333336e+00,    0.000000e+00
   11325,   -6.000000e+00,    1.333334e+00,    0.000000e+00
   11326,   -6.000000e+00,    2.666668e+00,    0.000000e+00
   11327,   -6.000000e+00,    4.000002e+00,    0.000000e+00
   11328,   -6.000000e+00,    5.333336e+00,    0.000000e+00
   11329,   -8.000000e+00,    1.333334e+00,    0.000000e+00
   11330,   -8.000000e+00,    2.666668e+00,    0.000000e+00
   11331,   -8.000000e+00,    4.000002e+00,    0.000000e+00
   11332,   -8.000000e+00,    5.333336e+00,    0.000000e+00
   11333,   -7.639033e+00,    5.333336e+00,   -2.024699e+00
   11334,   -7.208559e+00,    5.333336e+00,   -3.898144e+00
   11335,   -6.830325e+00,    5.333336e+00,   -5.307483e+00
   11336,   -5.539967e+00,    5.333336e+00,   -5.836899e+00
   11337,   -3.870860e+00,    5.333336e+00,   -6.487469e+00
   11338,   -1.975771e+00,    5.333336e+00,   -7.050566e+00
   11339,   -1.904575e+00,    5.333336e+00,   -4.642807e+00
   11340,   -3.758587e+00,    5.333336e+00,   -4.291406e+00
   11341,   -5.521504e+00,    5.333336e+00,   -3.990354e+00
   11342,   -1.907728e+00,    5.333336e+00,   -2.295649e+00
   11343,   -3.835050e+00,    5.333336e+00,   -2.141056e+00
   11344,   -5.713434e+00,    5.333336e+00,   -2.015796e+00
   11345,   -7.639033e+00,    4.000002e+00,   -2.024699e+00
   11346,   -7.208559e+00,    4.000002e+00,   -3.898144e+00
   11347,   -6.830325e+00,    4.000002e+00,   -5.307483e+00
   11348,   -5.539967e+00,    4.000002e+00,   -5.836899e+00
   11349,   -3.870860e+00,    4.000002e+00,   -6.487469e+00
   11350,   -1.975771e+00,    4.000002e+00,   -7.050566e+00
   11351,   -1.904575e+00,    4.000002e+00,   -4.642807e+00
   11352,   -3.758587e+00,    4.000002e+00,   -4.291406e+00
   11353,   -5.521504e+00,    4.000002e+00,   -3.990354e+00
   11354,   -1.907728e+00,    4.000002e+00,   -2.295649e+00
   11355,   -3.835050e+00,    4.000002e+00,   -2.141056e+00
   11356,   -5.713434e+00,    4.000002e+00,   -2.015796e+00
   11357,   -7.639033e+00,    2.666668e+00,   -2.024699e+00
   11358,   -7.208559e+00,    2.666668e+00,   -3.898144e+00
   11359,   -6.830325e+00,    2.666668e+00,   -5.307483e+00
   11360,   -5.539967e+00,    2.666668e+00,   -5.836899e+00
   11361,   -3.870860e+00,    2.666668e+00,   -6.487469e+00
   11362,   -1.975771e+00,    2.666668e+00,   -7.050566e+00
   11363,   -1.904575e+00,    2.666668e+00,   -4.642807e+00
   11364,   -3.758587e+00,    2.666668e+00,   -4.291406e+00
   11365,   -5.521504e+00,    2.666668e+00,   -3.990354e+00
   11366,   -1.907728e+00,    2.666668e+00,   -2.295649e+00
   11367,   -3.835050e+00,    2.666668e+00,   -2.141056e+00
   11368,   -5.713434e+00,    2.666668e+00,   -2.015796e+00
   11369,   -7.639033e+00,    1.333334e+00,   -2.024699e+00
   11370,   -7.208559e+00,    1.333334e+00,   -3.898144e+00
   11371,   -6.830325e+00,    1.333334e+00,   -5.307483e+00
   11372,   -5.539967e+00,    1.333334e+00,   -5.836899e+00
   11373,   -3.870860e+00,    1.333334e+00,   -6.487469e+00
   11374,   -1.975771e+00,    1.333334e+00,   -7.050566e+00
   11375,   -1.904575e+00,    1.333334e+00,   -4.642807e+00
   11376,   -3.758587e+00,    1.333334e+00,   -4.291406e+00
   11377,   -5.521504e+00,    1.333334e+00,   -3.990354e+00
   11378,   -1.907728e+00,    1.333334e+00,   -2.295649e+00
   11379,   -3.835050e+00,    1.333334e+00,   -2.141056e+00
   11380,   -5.713434e+00,    1.333334e+00,   -2.015796e+00
   11381,   -7.639033e+00,    0.000000e+00,   -2.024699e+00
   11382,   -7.208559e+00,    0.000000e+00,   -3.898144e+00
   11383,   -6.830325e+00,    0.000000e+00,   -5.307483e+00
   11384,   -5.539967e+00,    0.000000e+00,   -5.836899e+00
   11385,   -3.870860e+00,    0.000000e+00,   -6.487469e+00
   11386,   -1.975771e+00,    0.000000e+00,   -7.050566e+00
   11387,   -1.904575e+00,    0.000000e+00,   -4.642807e+00
   11388,   -3.758587e+00,    0.000000e+00,   -4.291406e+00
   11389,   -5.521504e+00,    0.000000e+00,   -3.990354e+00
   11390,   -1.907728e+00,    0.000000e+00,   -2.295649e+00
   11391,   -3.835050e+00,    0.000000e+00,   -2.141056e+00
   11392,   -5.713434e+00,    0.000000e+00,   -2.015796e+00
   11393,   -1.000000e+01,   -7.000000e+01,    0.000000e+00
   11394,   -9.749279e+00,   -7.000000e+01,   -2.225209e+00
   11395,   -9.009689e+00,   -7.000000e+01,   -4.338837e+00
   11396,   -7.818315e+00,   -7.000000e+01,   -6.234898e+00
   11397,   -6.234898e+00,   -7.000000e+01,   -7.818315e+00
   11398,   -4.338837e+00,   -7.000000e+01,   -9.009689e+00
   11399,   -2.225209e+00,   -7.000000e+01,   -9.749279e+00
   11400,   -1.000000e+01,   -3.888889e+00,   -6.252502e-16
   11401,   -1.000000e+01,   -7.777778e+00,   -3.871245e-16
   11402,   -1.000000e+01,   -1.166667e+01,   -1.489987e-16
   11403,   -1.000000e+01,   -1.555556e+01,    8.912707e-17
   11404,   -1.000000e+01,   -1.944444e+01,    3.272528e-16
   11405,   -1.000000e+01,   -2.333333e+01,    5.653786e-16
   11406,   -1.000000e+01,   -2.722222e+01,    8.035044e-16
   11407,   -1.000000e+01,   -3.111111e+01,    1.041630e-15
   11408,   -1.000000e+01,   -3.500000e+01,    1.279756e-15
   11409,   -1.000000e+01,   -3.888889e+01,    1.517882e-15
   11410,   -1.000000e+01,   -4.277778e+01,    1.756007e-15
   11411,   -1.000000e+01,   -4.666667e+01,    1.994133e-15
   11412,   -1.000000e+01,   -5.055556e+01,    2.232259e-15
   11413,   -1.000000e+01,   -5.444444e+01,    2.470385e-15
   11414,   -1.000000e+01,   -5.833333e+01,    2.708511e-15
   11415,   -1.000000e+01,   -6.222222e+01,    2.946636e-15
   11416,   -1.000000e+01,   -6.611111e+01,    3.184762e-15
   11417,   -2.225209e+00,   -3.888889e+00,   -9.749279e+00
   11418,   -2.225209e+00,   -7.777778e+00,   -9.749279e+00
   11419,   -2.225209e+00,   -1.166667e+01,   -9.749279e+00
   11420,   -2.225209e+00,   -1.555556e+01,   -9.749279e+00
   11421,   -2.225209e+00,   -1.944444e+01,   -9.749279e+00
   11422,   -2.225209e+00,   -2.333333e+01,   -9.749279e+00
   11423,   -2.225209e+00,   -2.722222e+01,   -9.749279e+00
   11424,   -2.225209e+00,   -3.111111e+01,   -9.749279e+00
   11425,   -2.225209e+00,   -3.500000e+01,   -9.749279e+00
   11426,   -2.225209e+00,   -3.888889e+01,   -9.749279e+00
   11427,   -2.225209e+00,   -4.277778e+01,   -9.749279e+00
   11428,   -2.225209e+00,   -4.666667e+01,   -9.749279e+00
   11429,   -2.225209e+00,   -5.055556e+01,   -9.749279e+00
   11430,   -2.225209e+00,   -5.444444e+01,   -9.749279e+00
   11431,   -2.225209e+00,   -5.833333e+01,   -9.749279e+00
   11432,   -2.225209e+00,   -6.222222e+01,   -9.749279e+00
   11433,   -2.225209e+00,   -6.611111e+01,   -9.749279e+00
   11434,   -4.338837e+00,   -3.888889e+00,   -9.009689e+00
   11435,   -4.338837e+00,   -7.777778e+00,   -9.009689e+00
   11436,   -4.338837e+00,   -1.166667e+01,   -9.009689e+00
   11437,   -4.338837e+00,   -1.555556e+01,   -9.009689e+00
   11438,   -4.338837e+00,   -1.944444e+01,   -9.009689e+00
   11439,   -4.338837e+00,   -2.333333e+01,   -9.009689e+00
   11440,   -4.338837e+00,   -2.722222e+01,   -9.009689e+00
   11441,   -4.338837e+00,   -3.111111e+01,   -9.009689e+00
   11442,   -4.338837e+00,   -3.500000e+01,   -9.009689e+00
   11443,   -4.338837e+00,   -3.888889e+01,   -9.009689e+00
   11444,   -4.338837e+00,   -4.277778e+01,   -9.009689e+00
   11445,   -4.338837e+00,   -4.666667e+01,   -9.009689e+00
   11446,   -4.338837e+00,   -5.055556e+01,   -9.009689e+00
   11447,   -4.338837e+00,   -5.444444e+01,   -9.009689e+00
   11448,   -4.338837e+00,   -5.833333e+01,   -9.009689e+00
   11449,   -4.338837e+00,   -6.222222e+01,   -9.009689e+00
   11450,   -4.338837e+00,   -6.611111e+01,   -9.009689e+00
   11451,   -6.234898e+00,   -3.888889e+00,   -7.818315e+00
   11452,   -6.234898e+00,   -7.777778e+00,   -7.818315e+00
   11453,   -6.234898e+00,   -1.166667e+01,   -7.818315e+00
   11454,   -6.234898e+00,   -1.555556e+01,   -7.818315e+00
   11455,   -6.234898e+00,   -1.944444e+01,   -7.818315e+00
   11456,   -6.234898e+00,   -2.333333e+01,   -7.818315e+00
   11457,   -6.234898e+00,   -2.722222e+01,   -7.818315e+00
   11458,   -6.234898e+00,   -3.111111e+01,   -7.818315e+00
   11459,   -6.234898e+00,   -3.500000e+01,   -7.818315e+00
   11460,   -6.234898e+00,   -3.888889e+01,   -7.818315e+00
   11461,   -6.234898e+00,   -4.277778e+01,   -7.818315e+00
   11462,   -6.234898e+00,   -4.666667e+01,   -7.818315e+00
   11463,   -6.234898e+00,   -5.055556e+01,   -7.818315e+00
   11464,   -6.234898e+00,   -5.444444e+01,   -7.818315e+00
   11465,   -6.234898e+00,   -5.833333e+01,   -7.818315e+00
   11466,   -6.234898e+00,   -6.222222e+01,   -7.818315e+00
   11467,   -6.234898e+00,   -6.611111e+01,   -7.818315e+00
   11468,   -7.818315e+00,   -3.888889e+00,   -6.234898e+00
   11469,   -7.818315e+00,   -7.777778e+00,   -6.234898e+00
   11470,   -7.818315e+00,   -1.166667e+01,   -6.234898e+00
   11471,   -7.818315e+00,   -1.555556e+01,   -6.234898e+00
   11472,   -7.818315e+00,   -1.944444e+01,   -6.234898e+00
   11473,   -7.818315e+00,   -2.333333e+01,   -6.234898e+00
   11474,   -7.818315e+00,   -2.722222e+01,   -6.234898e+00
   11475,   -7.818315e+00,   -3.111111e+01,   -6.234898e+00
   11476,   -7.818315e+00,   -3.500000e+01,   -6.234898e+00
   11477,   -7.818315e+00,   -3.888889e+01,   -6.234898e+00
   11478,   -7.818315e+00,   -4.277778e+01,   -6.234898e+00
   11479,   -7.818315e+00,   -4.666667e+01,   -6.234898e+00
   11480,   -7.818315e+00,   -5.055556e+01,   -6.234898e+00
   11481,   -7.818315e+00,   -5.444444e+01,   -6.234898e+00
   11482,   -7.818315e+00,   -5.833333e+01,   -6.234898e+00
   11483,   -7.818315e+00,   -6.222222e+01,   -6.234898e+00
   11484,   -7.818315e+00,   -6.611111e+01,   -6.234898e+00
   11485,   -9.009689e+00,   -3.888889e+00,   -4.338837e+00
   11486,   -9.009689e+00,   -7.777778e+00,   -4.338837e+00
   11487,   -9.009689e+00,   -1.166667e+01,   -4.338837e+00
   11488,   -9.009689e+00,   -1.555556e+01,   -4.338837e+00
   11489,   -9.009689e+00,   -1.944444e+01,   -4.338837e+00
   11490,   -9.009689e+00,   -2.333333e+01,   -4.338837e+00
   11491,   -9.009689e+00,   -2.722222e+01,   -4.338837e+00
   11492,   -9.009689e+00,   -3.111111e+01,   -4.338837e+00
   11493,   -9.009689e+00,   -3.500000e+01,   -4.338837e+00
   11494,   -9.009689e+00,   -3.888889e+01,   -4.338837e+00
   11495,   -9.009689e+00,   -4.277778e+01,   -4.338837e+00
   11496,   -9.009689e+00,   -4.666667e+01,   -4.338837e+00
   11497,   -9.009689e+00,   -5.055556e+01,   -4.338837e+00
   11498,   -9.009689e+00,   -5.444444e+01,   -4.338837e+00
   11499,   -9.009689e+00,   -5.833333e+01,   -4.338837e+00
   11500,   -9.009689e+00,   -6.222222e+01,   -4.338837e+00
   11501,   -9.009689e+00,   -6.611111e+01,   -4.338837e+00
   11502,   -9.749279e+00,   -3.888889e+00,   -2.225209e+00
   11503,   -9.749279e+00,   -7.777778e+00,   -2.225209e+00
   11504,   -9.749279e+00,   -1.166667e+01,   -2.225209e+00
   11505,   -9.749279e+00,   -1.555556e+01,   -2.225209e+00
   11506,   -9.749279e+00,   -1.944444e+01,   -2.225209e+00
   11507,   -9.749279e+00,   -2.333333e+01,   -2.225209e+00
   11508,   -9.749279e+00,   -2.722222e+01,   -2.225209e+00
   11509,   -9.749279e+00,   -3.111111e+01,   -2.225209e+00
   11510,   -9.749279e+00,   -3.500000e+01,   -2.225209e+00
   11511,   -9.749279e+00,   -3.888889e+01,   -2.225209e+00
   11512,   -9.749279e+00,   -4.277778e+01,   -2.225209e+00
   11513,   -9.749279e+00,   -4.666667e+01,   -2.225209e+00
   11514,   -9.749279e+00,   -5.055556e+01,   -2.225209e+00
   11515,   -9.749279e+00,   -5.444444e+01,   -2.225209e+00
   11516,   -9.749279e+00,   -5.833333e+01,   -2.225209e+00
   11517,   -9.749279e+00,   -6.222222e+01,   -2.225209e+00
   11518,   -9.749279e+00,   -6.611111e+01,   -2.225209e+00
   11519,   -8.000000e+00,   -7.000000e+01,    0.000000e+00
   11520,   -6.000000e+00,   -7.000000e+01,    0.000000e+00
   11521,   -4.000000e+00,   -7.000000e+01,    0.000000e+00
   11522,   -2.000000e+00,   -7.000000e+01,    0.000000e+00
   11523,   -2.000000e+00,   -6.611111e+01,    0.000000e+00
   11524,   -2.000000e+00,   -6.222222e+01,    0.000000e+00
   11525,   -2.000000e+00,   -5.833333e+01,    0.000000e+00
   11526,   -2.000000e+00,   -5.444444e+01,    0.000000e+00
   11527,   -2.000000e+00,   -5.055556e+01,    0.000000e+00
   11528,   -2.000000e+00,   -4.666667e+01,    0.000000e+00
   11529,   -2.000000e+00,   -4.277778e+01,    0.000000e+00
   11530,   -2.000000e+00,   -3.888889e+01,    0.000000e+00
   11531,   -2.000000e+00,   -3.500000e+01,    0.000000e+00
   11532,   -2.000000e+00,   -3.111111e+01,    0.000000e+00
   11533,   -2.000000e+00,   -2.722222e+01,    0.000000e+00
   11534,   -2.000000e+00,   -2.333333e+01,    0.000000e+00
   11535,   -2.000000e+00,   -1.944444e+01,    0.000000e+00
   11536,   -2.000000e+00,   -1.555556e+01,    0.000000e+00
   11537,   -2.000000e+00,   -1.166667e+01,    0.000000e+00
   11538,   -2.000000e+00,   -7.777778e+00,    0.000000e+00
   11539,   -2.000000e+00,   -3.888889e+00,    0.000000e+00
   11540,   -4.000000e+00,   -6.611111e+01,    0.000000e+00
   11541,   -4.000000e+00,   -6.222222e+01,    0.000000e+00
   11542,   -4.000000e+00,   -5.833333e+01,    0.000000e+00
   11543,   -4.000000e+00,   -5.444444e+01,    0.000000e+00
   11544,   -4.000000e+00,   -5.055556e+01,    0.000000e+00
   11545,   -4.000000e+00,   -4.666667e+01,    0.000000e+00
   11546,   -4.000000e+00,   -4.277778e+01,    0.000000e+00
   11547,   -4.000000e+00,   -3.888889e+01,    0.000000e+00
   11548,   -4.000000e+00,   -3.500000e+01,    0.000000e+00
   11549,   -4.000000e+00,   -3.111111e+01,    0.000000e+00
   11550,   -4.000000e+00,   -2.722222e+01,    0.000000e+00
   11551,   -4.000000e+00,   -2.333333e+01,    0.000000e+00
   11552,   -4.000000e+00,   -1.944444e+01,    0.000000e+00
   11553,   -4.000000e+00,   -1.555556e+01,    0.000000e+00
   11554,   -4.000000e+00,   -1.166667e+01,    0.000000e+00
   11555,   -4.000000e+00,   -7.777778e+00,    0.000000e+00
   11556,   -4.000000e+00,   -3.888889e+00,    0.000000e+00
   11557,   -6.000000e+00,   -6.611111e+01,    0.000000e+00
   11558,   -6.000000e+00,   -6.222222e+01,    0.000000e+00
   11559,   -6.000000e+00,   -5.833333e+01,    0.000000e+00
   11560,   -6.000000e+00,   -5.444444e+01,    0.000000e+00
   11561,   -6.000000e+00,   -5.055556e+01,    0.000000e+00
   11562,   -6.000000e+00,   -4.666667e+01,    0.000000e+00
   11563,   -6.000000e+00,   -4.277778e+01,    0.000000e+00
   11564,   -6.000000e+00,   -3.888889e+01,    0.000000e+00
   11565,   -6.000000e+00,   -3.500000e+01,    0.000000e+00
   11566,   -6.000000e+00,   -3.111111e+01,    0.000000e+00
   11567,   -6.000000e+00,   -2.722222e+01,    0.000000e+00
   11568,   -6.000000e+00,   -2.333333e+01,    0.000000e+00
   11569,   -6.000000e+00,   -1.944444e+01,    0.000000e+00
   11570,   -6.000000e+00,   -1.555556e+01,    0.000000e+00
   11571,   -6.000000e+00,   -1.166667e+01,    0.000000e+00
   11572,   -6.000000e+00,   -7.777778e+00,    0.000000e+00
   11573,   -6.000000e+00,   -3.888889e+00,    0.000000e+00
   11574,   -8.000000e+00,   -6.611111e+01,    0.000000e+00
   11575,   -8.000000e+00,   -6.222222e+01,    0.000000e+00
   11576,   -8.000000e+00,   -5.833333e+01,    0.000000e+00
   11577,   -8.000000e+00,   -5.444444e+01,    0.000000e+00
   11578,   -8.000000e+00,   -5.055556e+01,    0.000000e+00
   11579,   -8.000000e+00,   -4.666667e+01,    0.000000e+00
   11580,   -8.000000e+00,   -4.277778e+01,    0.000000e+00
   11581,   -8.000000e+00,   -3.888889e+01,    0.000000e+00
   11582,   -8.000000e+00,   -3.500000e+01,    0.000000e+00
   11583,   -8.000000e+00,   -3.111111e+01,    0.000000e+00
   11584,   -8.000000e+00,   -2.722222e+01,    0.000000e+00
   11585,   -8.000000e+00,   -2.333333e+01,    0.000000e+00
   11586,   -8.000000e+00,   -1.944444e+01,    0.000000e+00
   11587,   -8.000000e+00,   -1.555556e+01,    0.000000e+00
   11588,   -8.000000e+00,   -1.166667e+01,    0.000000e+00
   11589,   -8.000000e+00,   -7.777778e+00,    0.000000e+00
   11590,   -8.000000e+00,   -3.888889e+00,    0.000000e+00
   11591,   -5.713434e+00,   -3.888889e+00,   -2.015796e+00
   11592,   -7.639033e+00,   -3.888889e+00,   -2.024699e+00
   11593,   -3.835050e+00,   -3.888889e+00,   -2.141056e+00
   11594,   -1.907728e+00,   -3.888889e+00,   -2.295649e+00
   11595,   -5.521504e+00,   -3.888889e+00,   -3.990354e+00
   11596,   -7.208559e+00,   -3.888889e+00,   -3.898144e+00
   11597,   -3.758587e+00,   -3.888889e+00,   -4.291406e+00
   11598,   -1.904575e+00,   -3.888889e+00,   -4.642807e+00
   11599,   -5.539967e+00,   -3.888889e+00,   -5.836899e+00
   11600,   -6.830325e+00,   -3.888889e+00,   -5.307483e+00
   11601,   -3.870860e+00,   -3.888889e+00,   -6.487469e+00
   11602,   -1.975771e+00,   -3.888889e+00,   -7.050566e+00
   11603,   -5.713434e+00,   -7.777778e+00,   -2.015796e+00
   11604,   -7.639033e+00,   -7.777778e+00,   -2.024699e+00
   11605,   -3.835050e+00,   -7.777778e+00,   -2.141056e+00
   11606,   -1.907728e+00,   -7.777778e+00,   -2.295649e+00
   11607,   -5.521504e+00,   -7.777778e+00,   -3.990354e+00
   11608,   -7.208559e+00,   -7.777778e+00,   -3.898144e+00
   11609,   -3.758587e+00,   -7.777778e+00,   -4.291406e+00
   11610,   -1.904575e+00,   -7.777778e+00,   -4.642807e+00
   11611,   -5.539967e+00,   -7.777778e+00,   -5.836899e+00
   11612,   -6.830325e+00,   -7.777778e+00,   -5.307483e+00
   11613,   -3.870860e+00,   -7.777778e+00,   -6.487469e+00
   11614,   -1.975771e+00,   -7.777778e+00,   -7.050566e+00
   11615,   -5.713434e+00,   -1.166667e+01,   -2.015796e+00
   11616,   -7.639033e+00,   -1.166667e+01,   -2.024699e+00
   11617,   -3.835050e+00,   -1.166667e+01,   -2.141056e+00
   11618,   -1.907728e+00,   -1.166667e+01,   -2.295649e+00
   11619,   -5.521504e+00,   -1.166667e+01,   -3.990354e+00
   11620,   -7.208559e+00,   -1.166667e+01,   -3.898144e+00
   11621,   -3.758587e+00,   -1.166667e+01,   -4.291406e+00
   11622,   -1.904575e+00,   -1.166667e+01,   -4.642807e+00
   11623,   -5.539967e+00,   -1.166667e+01,   -5.836899e+00
   11624,   -6.830325e+00,   -1.166667e+01,   -5.307483e+00
   11625,   -3.870860e+00,   -1.166667e+01,   -6.487469e+00
   11626,   -1.975771e+00,   -1.166667e+01,   -7.050566e+00
   11627,   -5.713434e+00,   -1.555556e+01,   -2.015796e+00
   11628,   -7.639033e+00,   -1.555556e+01,   -2.024699e+00
   11629,   -3.835050e+00,   -1.555556e+01,   -2.141056e+00
   11630,   -1.907728e+00,   -1.555556e+01,   -2.295649e+00
   11631,   -5.521504e+00,   -1.555556e+01,   -3.990354e+00
   11632,   -7.208559e+00,   -1.555556e+01,   -3.898144e+00
   11633,   -3.758587e+00,   -1.555556e+01,   -4.291406e+00
   11634,   -1.904575e+00,   -1.555556e+01,   -4.642807e+00
   11635,   -5.539967e+00,   -1.555556e+01,   -5.836899e+00
   11636,   -6.830325e+00,   -1.555556e+01,   -5.307483e+00
   11637,   -3.870860e+00,   -1.555556e+01,   -6.487469e+00
   11638,   -1.975771e+00,   -1.555556e+01,   -7.050566e+00
   11639,   -5.713434e+00,   -1.944444e+01,   -2.015796e+00
   11640,   -7.639033e+00,   -1.944444e+01,   -2.024699e+00
   11641,   -3.835050e+00,   -1.944444e+01,   -2.141056e+00
   11642,   -1.907728e+00,   -1.944444e+01,   -2.295649e+00
   11643,   -5.521504e+00,   -1.944444e+01,   -3.990354e+00
   11644,   -7.208559e+00,   -1.944444e+01,   -3.898144e+00
   11645,   -3.758587e+00,   -1.944444e+01,   -4.291406e+00
   11646,   -1.904575e+00,   -1.944444e+01,   -4.642807e+00
   11647,   -5.539967e+00,   -1.944444e+01,   -5.836899e+00
   11648,   -6.830325e+00,   -1.944444e+01,   -5.307483e+00
   11649,   -3.870860e+00,   -1.944444e+01,   -6.487469e+00
   11650,   -1.975771e+00,   -1.944444e+01,   -7.050566e+00
   11651,   -5.713434e+00,   -2.333333e+01,   -2.015796e+00
   11652,   -7.639033e+00,   -2.333333e+01,   -2.024699e+00
   11653,   -3.835050e+00,   -2.333333e+01,   -2.141056e+00
   11654,   -1.907728e+00,   -2.333333e+01,   -2.295649e+00
   11655,   -5.521504e+00,   -2.333333e+01,   -3.990354e+00
   11656,   -7.208559e+00,   -2.333333e+01,   -3.898144e+00
   11657,   -3.758587e+00,   -2.333333e+01,   -4.291406e+00
   11658,   -1.904575e+00,   -2.333333e+01,   -4.642807e+00
   11659,   -5.539967e+00,   -2.333333e+01,   -5.836899e+00
   11660,   -6.830325e+00,   -2.333333e+01,   -5.307483e+00
   11661,   -3.870860e+00,   -2.333333e+01,   -6.487469e+00
   11662,   -1.975771e+00,   -2.333333e+01,   -7.050566e+00
   11663,   -5.713434e+00,   -2.722222e+01,   -2.015796e+00
   11664,   -7.639033e+00,   -2.722222e+01,   -2.024699e+00
   11665,   -3.835050e+00,   -2.722222e+01,   -2.141056e+00
   11666,   -1.907728e+00,   -2.722222e+01,   -2.295649e+00
   11667,   -5.521504e+00,   -2.722222e+01,   -3.990354e+00
   11668,   -7.208559e+00,   -2.722222e+01,   -3.898144e+00
   11669,   -3.758587e+00,   -2.722222e+01,   -4.291406e+00
   11670,   -1.904575e+00,   -2.722222e+01,   -4.642807e+00
   11671,   -5.539967e+00,   -2.722222e+01,   -5.836899e+00
   11672,   -6.830325e+00,   -2.722222e+01,   -5.307483e+00
   11673,   -3.870860e+00,   -2.722222e+01,   -6.487469e+00
   11674,   -1.975771e+00,   -2.722222e+01,   -7.050566e+00
   11675,   -5.713434e+00,   -3.111111e+01,   -2.015796e+00
   11676,   -7.639033e+00,   -3.111111e+01,   -2.024699e+00
   11677,   -3.835050e+00,   -3.111111e+01,   -2.141056e+00
   11678,   -1.907728e+00,   -3.111111e+01,   -2.295649e+00
   11679,   -5.521504e+00,   -3.111111e+01,   -3.990354e+00
   11680,   -7.208559e+00,   -3.111111e+01,   -3.898144e+00
   11681,   -3.758587e+00,   -3.111111e+01,   -4.291406e+00
   11682,   -1.904575e+00,   -3.111111e+01,   -4.642807e+00
   11683,   -5.539967e+00,   -3.111111e+01,   -5.836899e+00
   11684,   -6.830325e+00,   -3.111111e+01,   -5.307483e+00
   11685,   -3.870860e+00,   -3.111111e+01,   -6.487469e+00
   11686,   -1.975771e+00,   -3.111111e+01,   -7.050566e+00
   11687,   -5.713434e+00,   -3.500000e+01,   -2.015796e+00
   11688,   -7.639033e+00,   -3.500000e+01,   -2.024699e+00
   11689,   -3.835050e+00,   -3.500000e+01,   -2.141056e+00
   11690,   -1.907728e+00,   -3.500000e+01,   -2.295649e+00
   11691,   -5.521504e+00,   -3.500000e+01,   -3.990354e+00
   11692,   -7.208559e+00,   -3.500000e+01,   -3.898144e+00
   11693,   -3.758587e+00,   -3.500000e+01,   -4.291406e+00
   11694,   -1.904575e+00,   -3.500000e+01,   -4.642807e+00
   11695,   -5.539967e+00,   -3.500000e+01,   -5.836899e+00
   11696,   -6.830325e+00,   -3.500000e+01,   -5.307483e+00
   11697,   -3.870860e+00,   -3.500000e+01,   -6.487469e+00
   11698,   -1.975771e+00,   -3.500000e+01,   -7.050566e+00
   11699,   -5.713434e+00,   -3.888889e+01,   -2.015796e+00
   11700,   -7.639033e+00,   -3.888889e+01,   -2.024699e+00
   11701,   -3.835050e+00,   -3.888889e+01,   -2.141056e+00
   11702,   -1.907728e+00,   -3.888889e+01,   -2.295649e+00
   11703,   -5.521504e+00,   -3.888889e+01,   -3.990354e+00
   11704,   -7.208559e+00,   -3.888889e+01,   -3.898144e+00
   11705,   -3.758587e+00,   -3.888889e+01,   -4.291406e+00
   11706,   -1.904575e+00,   -3.888889e+01,   -4.642807e+00
   11707,   -5.539967e+00,   -3.888889e+01,   -5.836899e+00
   11708,   -6.830325e+00,   -3.888889e+01,   -5.307483e+00
   11709,   -3.870860e+00,   -3.888889e+01,   -6.487469e+00
   11710,   -1.975771e+00,   -3.888889e+01,   -7.050566e+00
   11711,   -5.713434e+00,   -4.277778e+01,   -2.015796e+00
   11712,   -7.639033e+00,   -4.277778e+01,   -2.024699e+00
   11713,   -3.835050e+00,   -4.277778e+01,   -2.141056e+00
   11714,   -1.907728e+00,   -4.277778e+01,   -2.295649e+00
   11715,   -5.521504e+00,   -4.277778e+01,   -3.990354e+00
   11716,   -7.208559e+00,   -4.277778e+01,   -3.898144e+00
   11717,   -3.758587e+00,   -4.277778e+01,   -4.291406e+00
   11718,   -1.904575e+00,   -4.277778e+01,   -4.642807e+00
   11719,   -5.539967e+00,   -4.277778e+01,   -5.836899e+00
   11720,   -6.830325e+00,   -4.277778e+01,   -5.307483e+00
   11721,   -3.870860e+00,   -4.277778e+01,   -6.487469e+00
   11722,   -1.975771e+00,   -4.277778e+01,   -7.050566e+00
   11723,   -5.713434e+00,   -4.666667e+01,   -2.015796e+00
   11724,   -7.639033e+00,   -4.666667e+01,   -2.024699e+00
   11725,   -3.835050e+00,   -4.666667e+01,   -2.141056e+00
   11726,   -1.907728e+00,   -4.666667e+01,   -2.295649e+00
   11727,   -5.521504e+00,   -4.666667e+01,   -3.990354e+00
   11728,   -7.208559e+00,   -4.666667e+01,   -3.898144e+00
   11729,   -3.758587e+00,   -4.666667e+01,   -4.291406e+00
   11730,   -1.904575e+00,   -4.666667e+01,   -4.642807e+00
   11731,   -5.539967e+00,   -4.666667e+01,   -5.836899e+00
   11732,   -6.830325e+00,   -4.666667e+01,   -5.307483e+00
   11733,   -3.870860e+00,   -4.666667e+01,   -6.487469e+00
   11734,   -1.975771e+00,   -4.666667e+01,   -7.050566e+00
   11735,   -5.713434e+00,   -5.055556e+01,   -2.015796e+00
   11736,   -7.639033e+00,   -5.055556e+01,   -2.024699e+00
   11737,   -3.835050e+00,   -5.055556e+01,   -2.141056e+00
   11738,   -1.907728e+00,   -5.055556e+01,   -2.295649e+00
   11739,   -5.521504e+00,   -5.055556e+01,   -3.990354e+00
   11740,   -7.208559e+00,   -5.055556e+01,   -3.898144e+00
   11741,   -3.758587e+00,   -5.055556e+01,   -4.291406e+00
   11742,   -1.904575e+00,   -5.055556e+01,   -4.642807e+00
   11743,   -5.539967e+00,   -5.055556e+01,   -5.836899e+00
   11744,   -6.830325e+00,   -5.055556e+01,   -5.307483e+00
   11745,   -3.870860e+00,   -5.055556e+01,   -6.487469e+00
   11746,   -1.975771e+00,   -5.055556e+01,   -7.050566e+00
   11747,   -5.713434e+00,   -5.444444e+01,   -2.015796e+00
   11748,   -7.639033e+00,   -5.444444e+01,   -2.024699e+00
   11749,   -3.835050e+00,   -5.444444e+01,   -2.141056e+00
   11750,   -1.907728e+00,   -5.444444e+01,   -2.295649e+00
   11751,   -5.521504e+00,   -5.444444e+01,   -3.990354e+00
   11752,   -7.208559e+00,   -5.444444e+01,   -3.898144e+00
   11753,   -3.758587e+00,   -5.444444e+01,   -4.291406e+00
   11754,   -1.904575e+00,   -5.444444e+01,   -4.642807e+00
   11755,   -5.539967e+00,   -5.444444e+01,   -5.836899e+00
   11756,   -6.830325e+00,   -5.444444e+01,   -5.307483e+00
   11757,   -3.870860e+00,   -5.444444e+01,   -6.487469e+00
   11758,   -1.975771e+00,   -5.444444e+01,   -7.050566e+00
   11759,   -5.713434e+00,   -5.833333e+01,   -2.015796e+00
   11760,   -7.639033e+00,   -5.833333e+01,   -2.024699e+00
   11761,   -3.835050e+00,   -5.833333e+01,   -2.141056e+00
   11762,   -1.907728e+00,   -5.833333e+01,   -2.295649e+00
   11763,   -5.521504e+00,   -5.833333e+01,   -3.990354e+00
   11764,   -7.208559e+00,   -5.833333e+01,   -3.898144e+00
   11765,   -3.758587e+00,   -5.833333e+01,   -4.291406e+00
   11766,   -1.904575e+00,   -5.833333e+01,   -4.642807e+00
   11767,   -5.539967e+00,   -5.833333e+01,   -5.836899e+00
   11768,   -6.830325e+00,   -5.833333e+01,   -5.307483e+00
   11769,   -3.870860e+00,   -5.833333e+01,   -6.487469e+00
   11770,   -1.975771e+00,   -5.833333e+01,   -7.050566e+00
   11771,   -5.713434e+00,   -6.222222e+01,   -2.015796e+00
   11772,   -7.639033e+00,   -6.222222e+01,   -2.024699e+00
   11773,   -3.835050e+00,   -6.222222e+01,   -2.141056e+00
   11774,   -1.907728e+00,   -6.222222e+01,   -2.295649e+00
   11775,   -5.521504e+00,   -6.222222e+01,   -3.990354e+00
   11776,   -7.208559e+00,   -6.222222e+01,   -3.898144e+00
   11777,   -3.758587e+00,   -6.222222e+01,   -4.291406e+00
   11778,   -1.904575e+00,   -6.222222e+01,   -4.642807e+00
   11779,   -5.539967e+00,   -6.222222e+01,   -5.836899e+00
   11780,   -6.830325e+00,   -6.222222e+01,   -5.307483e+00
   11781,   -3.870860e+00,   -6.222222e+01,   -6.487469e+00
   11782,   -1.975771e+00,   -6.222222e+01,   -7.050566e+00
   11783,   -5.713434e+00,   -6.611111e+01,   -2.015796e+00
   11784,   -7.639033e+00,   -6.611111e+01,   -2.024699e+00
   11785,   -3.835050e+00,   -6.611111e+01,   -2.141056e+00
   11786,   -1.907728e+00,   -6.611111e+01,   -2.295649e+00
   11787,   -5.521504e+00,   -6.611111e+01,   -3.990354e+00
   11788,   -7.208559e+00,   -6.611111e+01,   -3.898144e+00
   11789,   -3.758587e+00,   -6.611111e+01,   -4.291406e+00
   11790,   -1.904575e+00,   -6.611111e+01,   -4.642807e+00
   11791,   -5.539967e+00,   -6.611111e+01,   -5.836899e+00
   11792,   -6.830325e+00,   -6.611111e+01,   -5.307483e+00
   11793,   -3.870860e+00,   -6.611111e+01,   -6.487469e+00
   11794,   -1.975771e+00,   -6.611111e+01,   -7.050566e+00
   11795,   -5.713434e+00,   -7.000000e+01,   -2.015796e+00
   11796,   -7.639033e+00,   -7.000000e+01,   -2.024699e+00
   11797,   -3.835050e+00,   -7.000000e+01,   -2.141056e+00
   11798,   -1.907728e+00,   -7.000000e+01,   -2.295649e+00
   11799,   -5.521504e+00,   -7.000000e+01,   -3.990354e+00
   11800,   -7.208559e+00,   -7.000000e+01,   -3.898144e+00
   11801,   -3.758587e+00,   -7.000000e+01,   -4.291406e+00
   11802,   -1.904575e+00,   -7.000000e+01,   -4.642807e+00
   11803,   -5.539967e+00,   -7.000000e+01,   -5.836899e+00
   11804,   -6.830325e+00,   -7.000000e+01,   -5.307483e+00
   11805,   -3.870860e+00,   -7.000000e+01,   -6.487469e+00
   11806,   -1.975771e+00,   -7.000000e+01,   -7.050566e+00
   12157,    0.000000e+00,   -6.735557e-16,   -1.100000e+01
   12158,    0.000000e+00,   -6.123234e-16,   -1.000000e+01
   12159,    0.000000e+00,   -7.000000e+01,   -1.100000e+01
   12160,    0.000000e+00,   -6.750000e+01,   -1.100000e+01
   12161,    0.000000e+00,   -6.500000e+01,   -1.100000e+01
   12162,    0.000000e+00,   -6.250000e+01,   -1.100000e+01
   12163,    0.000000e+00,   -6.000000e+01,   -1.100000e+01
   12164,    0.000000e+00,   -5.750000e+01,   -1.100000e+01
   12165,    0.000000e+00,   -5.500000e+01,   -1.100000e+01
   12166,    0.000000e+00,   -5.250000e+01,   -1.100000e+01
   12167,    0.000000e+00,   -5.000000e+01,   -1.100000e+01
   12168,    0.000000e+00,   -4.750000e+01,   -1.100000e+01
   12169,    0.000000e+00,   -4.500000e+01,   -1.100000e+01
   12170,    0.000000e+00,   -4.250000e+01,   -1.100000e+01
   12171,    0.000000e+00,   -4.000000e+01,   -1.100000e+01
   12172,    0.000000e+00,   -3.750000e+01,   -1.100000e+01
   12173,    0.000000e+00,   -3.500000e+01,   -1.100000e+01
   12174,    0.000000e+00,   -3.250000e+01,   -1.100000e+01
   12175,    0.000000e+00,   -3.000000e+01,   -1.100000e+01
   12176,    0.000000e+00,   -2.750000e+01,   -1.100000e+01
   12177,    0.000000e+00,   -2.500000e+01,   -1.100000e+01
   12178,    0.000000e+00,   -2.250000e+01,   -1.100000e+01
   12179,    0.000000e+00,   -2.000000e+01,   -1.100000e+01
   12180,    0.000000e+00,   -1.750000e+01,   -1.100000e+01
   12181,    0.000000e+00,   -1.500000e+01,   -1.100000e+01
   12182,    0.000000e+00,   -1.250000e+01,   -1.100000e+01
   12183,    0.000000e+00,   -1.000000e+01,   -1.100000e+01
   12184,    0.000000e+00,   -7.500000e+00,   -1.100000e+01
   12185,    0.000000e+00,   -5.000000e+00,   -1.100000e+01
   12186,    0.000000e+00,   -2.500000e+00,   -1.100000e+01
   12187,    0.000000e+00,   -7.000000e+01,   -1.000000e+01
   12188,    0.000000e+00,   -2.500000e+00,   -1.000000e+01
   12189,    0.000000e+00,   -5.000000e+00,   -1.000000e+01
   12190,    0.000000e+00,   -7.500000e+00,   -1.000000e+01
   12191,    0.000000e+00,   -1.000000e+01,   -1.000000e+01
   12192,    0.000000e+00,   -1.250000e+01,   -1.000000e+01
   12193,    0.000000e+00,   -1.500000e+01,   -1.000000e+01
   12194,    0.000000e+00,   -1.750000e+01,   -1.000000e+01
   12195,    0.000000e+00,   -2.000000e+01,   -1.000000e+01
   12196,    0.000000e+00,   -2.250000e+01,   -1.000000e+01
   12197,    0.000000e+00,   -2.500000e+01,   -1.000000e+01
   12198,    0.000000e+00,   -2.750000e+01,   -1.000000e+01
   12199,    0.000000e+00,   -3.000000e+01,   -1.000000e+01
   12200,    0.000000e+00,   -3.250000e+01,   -1.000000e+01
   12201,    0.000000e+00,   -3.500000e+01,   -1.000000e+01
   12202,    0.000000e+00,   -3.750000e+01,   -1.000000e+01
   12203,    0.000000e+00,   -4.000000e+01,   -1.000000e+01
   12204,    0.000000e+00,   -4.250000e+01,   -1.000000e+01
   12205,    0.000000e+00,   -4.500000e+01,   -1.000000e+01
   12206,    0.000000e+00,   -4.750000e+01,   -1.000000e+01
   12207,    0.000000e+00,   -5.000000e+01,   -1.000000e+01
   12208,    0.000000e+00,   -5.250000e+01,   -1.000000e+01
   12209,    0.000000e+00,   -5.500000e+01,   -1.000000e+01
   12210,    0.000000e+00,   -5.750000e+01,   -1.000000e+01
   12211,    0.000000e+00,   -6.000000e+01,   -1.000000e+01
   12212,    0.000000e+00,   -6.250000e+01,   -1.000000e+01
   12213,    0.000000e+00,   -6.500000e+01,   -1.000000e+01
   12214,    0.000000e+00,   -6.750000e+01,   -1.000000e+01
   12215,    1.100000e+01,   -7.000000e+01,    2.143132e-15
   12216,    2.447730e+00,   -7.000000e+01,   -1.072421e+01
   12217,    4.772721e+00,   -7.000000e+01,   -9.910658e+00
   12218,    6.858388e+00,   -7.000000e+01,   -8.600146e+00
   12219,    8.600146e+00,   -7.000000e+01,   -6.858388e+00
   12220,    9.910658e+00,   -7.000000e+01,   -4.772721e+00
   12221,    1.072421e+01,   -7.000000e+01,   -2.447730e+00
   12222,    1.000000e+01,   -7.000000e+01,    2.143132e-15
   12223,    9.749279e+00,   -7.000000e+01,   -2.225209e+00
   12224,    9.009689e+00,   -7.000000e+01,   -4.338837e+00
   12225,    7.818315e+00,   -7.000000e+01,   -6.234898e+00
   12226,    6.234898e+00,   -7.000000e+01,   -7.818315e+00
   12227,    4.338837e+00,   -7.000000e+01,   -9.009689e+00
   12228,    2.225209e+00,   -7.000000e+01,   -9.749279e+00
   12229,    1.100000e+01,    0.000000e+00,   -2.143132e-15
   12230,    1.072421e+01,   -1.498803e-16,   -2.447730e+00
   12231,    9.910658e+00,   -2.922449e-16,   -4.772721e+00
   12232,    8.600146e+00,   -4.199551e-16,   -6.858388e+00
   12233,    6.858388e+00,   -5.266071e-16,   -8.600146e+00
   12234,    4.772721e+00,   -6.068528e-16,   -9.910658e+00
   12235,    2.447730e+00,   -6.566683e-16,   -1.072421e+01
   12236,    1.100000e+01,   -6.750000e+01,    1.990051e-15
   12237,    1.100000e+01,   -6.500000e+01,    1.836970e-15
   12238,    1.100000e+01,   -6.250000e+01,    1.683889e-15
   12239,    1.100000e+01,   -6.000000e+01,    1.530808e-15
   12240,    1.100000e+01,   -5.750000e+01,    1.377728e-15
   12241,    1.100000e+01,   -5.500000e+01,    1.224647e-15
   12242,    1.100000e+01,   -5.250000e+01,    1.071566e-15
   12243,    1.100000e+01,   -5.000000e+01,    9.184851e-16
   12244,    1.100000e+01,   -4.750000e+01,    7.654042e-16
   12245,    1.100000e+01,   -4.500000e+01,    6.123234e-16
   12246,    1.100000e+01,   -4.250000e+01,    4.592425e-16
   12247,    1.100000e+01,   -4.000000e+01,    3.061617e-16
   12248,    1.100000e+01,   -3.750000e+01,    1.530808e-16
   12249,    1.100000e+01,   -3.500000e+01,    0.000000e+00
   12250,    1.100000e+01,   -3.250000e+01,   -1.530808e-16
   12251,    1.100000e+01,   -3.000000e+01,   -3.061617e-16
   12252,    1.100000e+01,   -2.750000e+01,   -4.592425e-16
   12253,    1.100000e+01,   -2.500000e+01,   -6.123234e-16
   12254,    1.100000e+01,   -2.250000e+01,   -7.654042e-16
   12255,    1.100000e+01,   -2.000000e+01,   -9.184851e-16
   12256,    1.100000e+01,   -1.750000e+01,   -1.071566e-15
   12257,    1.100000e+01,   -1.500000e+01,   -1.224647e-15
   12258,    1.100000e+01,   -1.250000e+01,   -1.377728e-15
   12259,    1.100000e+01,   -1.000000e+01,   -1.530808e-15
   12260,    1.100000e+01,   -7.500000e+00,   -1.683889e-15
   12261,    1.100000e+01,   -5.000000e+00,   -1.836970e-15
   12262,    1.100000e+01,   -2.500000e+00,   -1.990051e-15
   12263,    2.447730e+00,   -6.750000e+01,   -1.072421e+01
   12264,    2.447730e+00,   -6.500000e+01,   -1.072421e+01
   12265,    2.447730e+00,   -6.250000e+01,   -1.072421e+01
   12266,    2.447730e+00,   -6.000000e+01,   -1.072421e+01
   12267,    2.447730e+00,   -5.750000e+01,   -1.072421e+01
   12268,    2.447730e+00,   -5.500000e+01,   -1.072421e+01
   12269,    2.447730e+00,   -5.250000e+01,   -1.072421e+01
   12270,    2.447730e+00,   -5.000000e+01,   -1.072421e+01
   12271,    2.447730e+00,   -4.750000e+01,   -1.072421e+01
   12272,    2.447730e+00,   -4.500000e+01,   -1.072421e+01
   12273,    2.447730e+00,   -4.250000e+01,   -1.072421e+01
   12274,    2.447730e+00,   -4.000000e+01,   -1.072421e+01
   12275,    2.447730e+00,   -3.750000e+01,   -1.072421e+01
   12276,    2.447730e+00,   -3.500000e+01,   -1.072421e+01
   12277,    2.447730e+00,   -3.250000e+01,   -1.072421e+01
   12278,    2.447730e+00,   -3.000000e+01,   -1.072421e+01
   12279,    2.447730e+00,   -2.750000e+01,   -1.072421e+01
   12280,    2.447730e+00,   -2.500000e+01,   -1.072421e+01
   12281,    2.447730e+00,   -2.250000e+01,   -1.072421e+01
   12282,    2.447730e+00,   -2.000000e+01,   -1.072421e+01
   12283,    2.447730e+00,   -1.750000e+01,   -1.072421e+01
   12284,    2.447730e+00,   -1.500000e+01,   -1.072421e+01
   12285,    2.447730e+00,   -1.250000e+01,   -1.072421e+01
   12286,    2.447730e+00,   -1.000000e+01,   -1.072421e+01
   12287,    2.447730e+00,   -7.500000e+00,   -1.072421e+01
   12288,    2.447730e+00,   -5.000000e+00,   -1.072421e+01
   12289,    2.447730e+00,   -2.500000e+00,   -1.072421e+01
   12290,    4.772721e+00,   -6.750000e+01,   -9.910658e+00
   12291,    4.772721e+00,   -6.500000e+01,   -9.910658e+00
   12292,    4.772721e+00,   -6.250000e+01,   -9.910658e+00
   12293,    4.772721e+00,   -6.000000e+01,   -9.910658e+00
   12294,    4.772721e+00,   -5.750000e+01,   -9.910658e+00
   12295,    4.772721e+00,   -5.500000e+01,   -9.910658e+00
   12296,    4.772721e+00,   -5.250000e+01,   -9.910658e+00
   12297,    4.772721e+00,   -5.000000e+01,   -9.910658e+00
   12298,    4.772721e+00,   -4.750000e+01,   -9.910658e+00
   12299,    4.772721e+00,   -4.500000e+01,   -9.910658e+00
   12300,    4.772721e+00,   -4.250000e+01,   -9.910658e+00
   12301,    4.772721e+00,   -4.000000e+01,   -9.910658e+00
   12302,    4.772721e+00,   -3.750000e+01,   -9.910658e+00
   12303,    4.772721e+00,   -3.500000e+01,   -9.910658e+00
   12304,    4.772721e+00,   -3.250000e+01,   -9.910658e+00
   12305,    4.772721e+00,   -3.000000e+01,   -9.910658e+00
   12306,    4.772721e+00,   -2.750000e+01,   -9.910658e+00
   12307,    4.772721e+00,   -2.500000e+01,   -9.910658e+00
   12308,    4.772721e+00,   -2.250000e+01,   -9.910658e+00
   12309,    4.772721e+00,   -2.000000e+01,   -9.910658e+00
   12310,    4.772721e+00,   -1.750000e+01,   -9.910658e+00
   12311,    4.772721e+00,   -1.500000e+01,   -9.910658e+00
   12312,    4.772721e+00,   -1.250000e+01,   -9.910658e+00
   12313,    4.772721e+00,   -1.000000e+01,   -9.910658e+00
   12314,    4.772721e+00,   -7.500000e+00,   -9.910658e+00
   12315,    4.772721e+00,   -5.000000e+00,   -9.910658e+00
   12316,    4.772721e+00,   -2.500000e+00,   -9.910658e+00
   12317,    6.858388e+00,   -6.750000e+01,   -8.600146e+00
   12318,    6.858388e+00,   -6.500000e+01,   -8.600146e+00
   12319,    6.858388e+00,   -6.250000e+01,   -8.600146e+00
   12320,    6.858388e+00,   -6.000000e+01,   -8.600146e+00
   12321,    6.858388e+00,   -5.750000e+01,   -8.600146e+00
   12322,    6.858388e+00,   -5.500000e+01,   -8.600146e+00
   12323,    6.858388e+00,   -5.250000e+01,   -8.600146e+00
   12324,    6.858388e+00,   -5.000000e+01,   -8.600146e+00
   12325,    6.858388e+00,   -4.750000e+01,   -8.600146e+00
   12326,    6.858388e+00,   -4.500000e+01,   -8.600146e+00
   12327,    6.858388e+00,   -4.250000e+01,   -8.600146e+00
   12328,    6.858388e+00,   -4.000000e+01,   -8.600146e+00
   12329,    6.858388e+00,   -3.750000e+01,   -8.600146e+00
   12330,    6.858388e+00,   -3.500000e+01,   -8.600146e+00
   12331,    6.858388e+00,   -3.250000e+01,   -8.600146e+00
   12332,    6.858388e+00,   -3.000000e+01,   -8.600146e+00
   12333,    6.858388e+00,   -2.750000e+01,   -8.600146e+00
   12334,    6.858388e+00,   -2.500000e+01,   -8.600146e+00
   12335,    6.858388e+00,   -2.250000e+01,   -8.600146e+00
   12336,    6.858388e+00,   -2.000000e+01,   -8.600146e+00
   12337,    6.858388e+00,   -1.750000e+01,   -8.600146e+00
   12338,    6.858388e+00,   -1.500000e+01,   -8.600146e+00
   12339,    6.858388e+00,   -1.250000e+01,   -8.600146e+00
   12340,    6.858388e+00,   -1.000000e+01,   -8.600146e+00
   12341,    6.858388e+00,   -7.500000e+00,   -8.600146e+00
   12342,    6.858388e+00,   -5.000000e+00,   -8.600146e+00
   12343,    6.858388e+00,   -2.500000e+00,   -8.600146e+00
   12344,    8.600146e+00,   -6.750000e+01,   -6.858388e+00
   12345,    8.600146e+00,   -6.500000e+01,   -6.858388e+00
   12346,    8.600146e+00,   -6.250000e+01,   -6.858388e+00
   12347,    8.600146e+00,   -6.000000e+01,   -6.858388e+00
   12348,    8.600146e+00,   -5.750000e+01,   -6.858388e+00
   12349,    8.600146e+00,   -5.500000e+01,   -6.858388e+00
   12350,    8.600146e+00,   -5.250000e+01,   -6.858388e+00
   12351,    8.600146e+00,   -5.000000e+01,   -6.858388e+00
   12352,    8.600146e+00,   -4.750000e+01,   -6.858388e+00
   12353,    8.600146e+00,   -4.500000e+01,   -6.858388e+00
   12354,    8.600146e+00,   -4.250000e+01,   -6.858388e+00
   12355,    8.600146e+00,   -4.000000e+01,   -6.858388e+00
   12356,    8.600146e+00,   -3.750000e+01,   -6.858388e+00
   12357,    8.600146e+00,   -3.500000e+01,   -6.858388e+00
   12358,    8.600146e+00,   -3.250000e+01,   -6.858388e+00
   12359,    8.600146e+00,   -3.000000e+01,   -6.858388e+00
   12360,    8.600146e+00,   -2.750000e+01,   -6.858388e+00
   12361,    8.600146e+00,   -2.500000e+01,   -6.858388e+00
   12362,    8.600146e+00,   -2.250000e+01,   -6.858388e+00
   12363,    8.600146e+00,   -2.000000e+01,   -6.858388e+00
   12364,    8.600146e+00,   -1.750000e+01,   -6.858388e+00
   12365,    8.600146e+00,   -1.500000e+01,   -6.858388e+00
   12366,    8.600146e+00,   -1.250000e+01,   -6.858388e+00
   12367,    8.600146e+00,   -1.000000e+01,   -6.858388e+00
   12368,    8.600146e+00,   -7.500000e+00,   -6.858388e+00
   12369,    8.600146e+00,   -5.000000e+00,   -6.858388e+00
   12370,    8.600146e+00,   -2.500000e+00,   -6.858388e+00
   12371,    9.910658e+00,   -6.750000e+01,   -4.772721e+00
   12372,    9.910658e+00,   -6.500000e+01,   -4.772721e+00
   12373,    9.910658e+00,   -6.250000e+01,   -4.772721e+00
   12374,    9.910658e+00,   -6.000000e+01,   -4.772721e+00
   12375,    9.910658e+00,   -5.750000e+01,   -4.772721e+00
   12376,    9.910658e+00,   -5.500000e+01,   -4.772721e+00
   12377,    9.910658e+00,   -5.250000e+01,   -4.772721e+00
   12378,    9.910658e+00,   -5.000000e+01,   -4.772721e+00
   12379,    9.910658e+00,   -4.750000e+01,   -4.772721e+00
   12380,    9.910658e+00,   -4.500000e+01,   -4.772721e+00
   12381,    9.910658e+00,   -4.250000e+01,   -4.772721e+00
   12382,    9.910658e+00,   -4.000000e+01,   -4.772721e+00
   12383,    9.910658e+00,   -3.750000e+01,   -4.772721e+00
   12384,    9.910658e+00,   -3.500000e+01,   -4.772721e+00
   12385,    9.910658e+00,   -3.250000e+01,   -4.772721e+00
   12386,    9.910658e+00,   -3.000000e+01,   -4.772721e+00
   12387,    9.910658e+00,   -2.750000e+01,   -4.772721e+00
   12388,    9.910658e+00,   -2.500000e+01,   -4.772721e+00
   12389,    9.910658e+00,   -2.250000e+01,   -4.772721e+00
   12390,    9.910658e+00,   -2.000000e+01,   -4.772721e+00
   12391,    9.910658e+00,   -1.750000e+01,   -4.772721e+00
   12392,    9.910658e+00,   -1.500000e+01,   -4.772721e+00
   12393,    9.910658e+00,   -1.250000e+01,   -4.772721e+00
   12394,    9.910658e+00,   -1.000000e+01,   -4.772721e+00
   12395,    9.910658e+00,   -7.500000e+00,   -4.772721e+00
   12396,    9.910658e+00,   -5.000000e+00,   -4.772721e+00
   12397,    9.910658e+00,   -2.500000e+00,   -4.772721e+00
   12398,    1.072421e+01,   -6.750000e+01,   -2.447730e+00
   12399,    1.072421e+01,   -6.500000e+01,   -2.447730e+00
   12400,    1.072421e+01,   -6.250000e+01,   -2.447730e+00
   12401,    1.072421e+01,   -6.000000e+01,   -2.447730e+00
   12402,    1.072421e+01,   -5.750000e+01,   -2.447730e+00
   12403,    1.072421e+01,   -5.500000e+01,   -2.447730e+00
   12404,    1.072421e+01,   -5.250000e+01,   -2.447730e+00
   12405,    1.072421e+01,   -5.000000e+01,   -2.447730e+00
   12406,    1.072421e+01,   -4.750000e+01,   -2.447730e+00
   12407,    1.072421e+01,   -4.500000e+01,   -2.447730e+00
   12408,    1.072421e+01,   -4.250000e+01,   -2.447730e+00
   12409,    1.072421e+01,   -4.000000e+01,   -2.447730e+00
   12410,    1.072421e+01,   -3.750000e+01,   -2.447730e+00
   12411,    1.072421e+01,   -3.500000e+01,   -2.447730e+00
   12412,    1.072421e+01,   -3.250000e+01,   -2.447730e+00
   12413,    1.072421e+01,   -3.000000e+01,   -2.447730e+00
   12414,    1.072421e+01,   -2.750000e+01,   -2.447730e+00
   12415,    1.072421e+01,   -2.500000e+01,   -2.447730e+00
   12416,    1.072421e+01,   -2.250000e+01,   -2.447730e+00
   12417,    1.072421e+01,   -2.000000e+01,   -2.447730e+00
   12418,    1.072421e+01,   -1.750000e+01,   -2.447730e+00
   12419,    1.072421e+01,   -1.500000e+01,   -2.447730e+00
   12420,    1.072421e+01,   -1.250000e+01,   -2.447730e+00
   12421,    1.072421e+01,   -1.000000e+01,   -2.447730e+00
   12422,    1.072421e+01,   -7.500000e+00,   -2.447730e+00
   12423,    1.072421e+01,   -5.000000e+00,   -2.447730e+00
   12424,    1.072421e+01,   -2.500000e+00,   -2.447730e+00
   12425,    1.000000e+01,    0.000000e+00,   -2.143132e-15
   12426,    1.000000e+01,   -2.500000e+00,   -1.990051e-15
   12427,    1.000000e+01,   -5.000000e+00,   -1.836970e-15
   12428,    1.000000e+01,   -7.500000e+00,   -1.683889e-15
   12429,    1.000000e+01,   -1.000000e+01,   -1.530808e-15
   12430,    1.000000e+01,   -1.250000e+01,   -1.377728e-15
   12431,    1.000000e+01,   -1.500000e+01,   -1.224647e-15
   12432,    1.000000e+01,   -1.750000e+01,   -1.071566e-15
   12433,    1.000000e+01,   -2.000000e+01,   -9.184851e-16
   12434,    1.000000e+01,   -2.250000e+01,   -7.654042e-16
   12435,    1.000000e+01,   -2.500000e+01,   -6.123234e-16
   12436,    1.000000e+01,   -2.750000e+01,   -4.592425e-16
   12437,    1.000000e+01,   -3.000000e+01,   -3.061617e-16
   12438,    1.000000e+01,   -3.250000e+01,   -1.530808e-16
   12439,    1.000000e+01,   -3.500000e+01,    0.000000e+00
   12440,    1.000000e+01,   -3.750000e+01,    1.530808e-16
   12441,    1.000000e+01,   -4.000000e+01,    3.061617e-16
   12442,    1.000000e+01,   -4.250000e+01,    4.592425e-16
   12443,    1.000000e+01,   -4.500000e+01,    6.123234e-16
   12444,    1.000000e+01,   -4.750000e+01,    7.654042e-16
   12445,    1.000000e+01,   -5.000000e+01,    9.184851e-16
   12446,    1.000000e+01,   -5.250000e+01,    1.071566e-15
   12447,    1.000000e+01,   -5.500000e+01,    1.224647e-15
   12448,    1.000000e+01,   -5.750000e+01,    1.377728e-15
   12449,    1.000000e+01,   -6.000000e+01,    1.530808e-15
   12450,    1.000000e+01,   -6.250000e+01,    1.683889e-15
   12451,    1.000000e+01,   -6.500000e+01,    1.836970e-15
   12452,    1.000000e+01,   -6.750000e+01,    1.990051e-15
   12453,    2.225209e+00,   -5.969712e-16,   -9.749279e+00
   12454,    4.338837e+00,   -5.516843e-16,   -9.009689e+00
   12455,    6.234898e+00,   -4.787337e-16,   -7.818315e+00
   12456,    7.818315e+00,   -3.817774e-16,   -6.234898e+00
   12457,    9.009689e+00,   -2.656772e-16,   -4.338837e+00
   12458,    9.749279e+00,   -1.362548e-16,   -2.225209e+00
   12459,    2.225209e+00,   -2.500000e+00,   -9.749279e+00
   12460,    2.225209e+00,   -5.000000e+00,   -9.749279e+00
   12461,    2.225209e+00,   -7.500000e+00,   -9.749279e+00
   12462,    2.225209e+00,   -1.000000e+01,   -9.749279e+00
   12463,    2.225209e+00,   -1.250000e+01,   -9.749279e+00
   12464,    2.225209e+00,   -1.500000e+01,   -9.749279e+00
   12465,    2.225209e+00,   -1.750000e+01,   -9.749279e+00
   12466,    2.225209e+00,   -2.000000e+01,   -9.749279e+00
   12467,    2.225209e+00,   -2.250000e+01,   -9.749279e+00
   12468,    2.225209e+00,   -2.500000e+01,   -9.749279e+00
   12469,    2.225209e+00,   -2.750000e+01,   -9.749279e+00
   12470,    2.225209e+00,   -3.000000e+01,   -9.749279e+00
   12471,    2.225209e+00,   -3.250000e+01,   -9.749279e+00
   12472,    2.225209e+00,   -3.500000e+01,   -9.749279e+00
   12473,    2.225209e+00,   -3.750000e+01,   -9.749279e+00
   12474,    2.225209e+00,   -4.000000e+01,   -9.749279e+00
   12475,    2.225209e+00,   -4.250000e+01,   -9.749279e+00
   12476,    2.225209e+00,   -4.500000e+01,   -9.749279e+00
   12477,    2.225209e+00,   -4.750000e+01,   -9.749279e+00
   12478,    2.225209e+00,   -5.000000e+01,   -9.749279e+00
   12479,    2.225209e+00,   -5.250000e+01,   -9.749279e+00
   12480,    2.225209e+00,   -5.500000e+01,   -9.749279e+00
   12481,    2.225209e+00,   -5.750000e+01,   -9.749279e+00
   12482,    2.225209e+00,   -6.000000e+01,   -9.749279e+00
   12483,    2.225209e+00,   -6.250000e+01,   -9.749279e+00
   12484,    2.225209e+00,   -6.500000e+01,   -9.749279e+00
   12485,    2.225209e+00,   -6.750000e+01,   -9.749279e+00
   12486,    4.338837e+00,   -2.500000e+00,   -9.009689e+00
   12487,    4.338837e+00,   -5.000000e+00,   -9.009689e+00
   12488,    4.338837e+00,   -7.500000e+00,   -9.009689e+00
   12489,    4.338837e+00,   -1.000000e+01,   -9.009689e+00
   12490,    4.338837e+00,   -1.250000e+01,   -9.009689e+00
   12491,    4.338837e+00,   -1.500000e+01,   -9.009689e+00
   12492,    4.338837e+00,   -1.750000e+01,   -9.009689e+00
   12493,    4.338837e+00,   -2.000000e+01,   -9.009689e+00
   12494,    4.338837e+00,   -2.250000e+01,   -9.009689e+00
   12495,    4.338837e+00,   -2.500000e+01,   -9.009689e+00
   12496,    4.338837e+00,   -2.750000e+01,   -9.009689e+00
   12497,    4.338837e+00,   -3.000000e+01,   -9.009689e+00
   12498,    4.338837e+00,   -3.250000e+01,   -9.009689e+00
   12499,    4.338837e+00,   -3.500000e+01,   -9.009689e+00
   12500,    4.338837e+00,   -3.750000e+01,   -9.009689e+00
   12501,    4.338837e+00,   -4.000000e+01,   -9.009689e+00
   12502,    4.338837e+00,   -4.250000e+01,   -9.009689e+00
   12503,    4.338837e+00,   -4.500000e+01,   -9.009689e+00
   12504,    4.338837e+00,   -4.750000e+01,   -9.009689e+00
   12505,    4.338837e+00,   -5.000000e+01,   -9.009689e+00
   12506,    4.338837e+00,   -5.250000e+01,   -9.009689e+00
   12507,    4.338837e+00,   -5.500000e+01,   -9.009689e+00
   12508,    4.338837e+00,   -5.750000e+01,   -9.009689e+00
   12509,    4.338837e+00,   -6.000000e+01,   -9.009689e+00
   12510,    4.338837e+00,   -6.250000e+01,   -9.009689e+00
   12511,    4.338837e+00,   -6.500000e+01,   -9.009689e+00
   12512,    4.338837e+00,   -6.750000e+01,   -9.009689e+00
   12513,    6.234898e+00,   -2.500000e+00,   -7.818315e+00
   12514,    6.234898e+00,   -5.000000e+00,   -7.818315e+00
   12515,    6.234898e+00,   -7.500000e+00,   -7.818315e+00
   12516,    6.234898e+00,   -1.000000e+01,   -7.818315e+00
   12517,    6.234898e+00,   -1.250000e+01,   -7.818315e+00
   12518,    6.234898e+00,   -1.500000e+01,   -7.818315e+00
   12519,    6.234898e+00,   -1.750000e+01,   -7.818315e+00
   12520,    6.234898e+00,   -2.000000e+01,   -7.818315e+00
   12521,    6.234898e+00,   -2.250000e+01,   -7.818315e+00
   12522,    6.234898e+00,   -2.500000e+01,   -7.818315e+00
   12523,    6.234898e+00,   -2.750000e+01,   -7.818315e+00
   12524,    6.234898e+00,   -3.000000e+01,   -7.818315e+00
   12525,    6.234898e+00,   -3.250000e+01,   -7.818315e+00
   12526,    6.234898e+00,   -3.500000e+01,   -7.818315e+00
   12527,    6.234898e+00,   -3.750000e+01,   -7.818315e+00
   12528,    6.234898e+00,   -4.000000e+01,   -7.818315e+00
   12529,    6.234898e+00,   -4.250000e+01,   -7.818315e+00
   12530,    6.234898e+00,   -4.500000e+01,   -7.818315e+00
   12531,    6.234898e+00,   -4.750000e+01,   -7.818315e+00
   12532,    6.234898e+00,   -5.000000e+01,   -7.818315e+00
   12533,    6.234898e+00,   -5.250000e+01,   -7.818315e+00
   12534,    6.234898e+00,   -5.500000e+01,   -7.818315e+00
   12535,    6.234898e+00,   -5.750000e+01,   -7.818315e+00
   12536,    6.234898e+00,   -6.000000e+01,   -7.818315e+00
   12537,    6.234898e+00,   -6.250000e+01,   -7.818315e+00
   12538,    6.234898e+00,   -6.500000e+01,   -7.818315e+00
   12539,    6.234898e+00,   -6.750000e+01,   -7.818315e+00
   12540,    7.818315e+00,   -2.500000e+00,   -6.234898e+00
   12541,    7.818315e+00,   -5.000000e+00,   -6.234898e+00
   12542,    7.818315e+00,   -7.500000e+00,   -6.234898e+00
   12543,    7.818315e+00,   -1.000000e+01,   -6.234898e+00
   12544,    7.818315e+00,   -1.250000e+01,   -6.234898e+00
   12545,    7.818315e+00,   -1.500000e+01,   -6.234898e+00
   12546,    7.818315e+00,   -1.750000e+01,   -6.234898e+00
   12547,    7.818315e+00,   -2.000000e+01,   -6.234898e+00
   12548,    7.818315e+00,   -2.250000e+01,   -6.234898e+00
   12549,    7.818315e+00,   -2.500000e+01,   -6.234898e+00
   12550,    7.818315e+00,   -2.750000e+01,   -6.234898e+00
   12551,    7.818315e+00,   -3.000000e+01,   -6.234898e+00
   12552,    7.818315e+00,   -3.250000e+01,   -6.234898e+00
   12553,    7.818315e+00,   -3.500000e+01,   -6.234898e+00
   12554,    7.818315e+00,   -3.750000e+01,   -6.234898e+00
   12555,    7.818315e+00,   -4.000000e+01,   -6.234898e+00
   12556,    7.818315e+00,   -4.250000e+01,   -6.234898e+00
   12557,    7.818315e+00,   -4.500000e+01,   -6.234898e+00
   12558,    7.818315e+00,   -4.750000e+01,   -6.234898e+00
   12559,    7.818315e+00,   -5.000000e+01,   -6.234898e+00
   12560,    7.818315e+00,   -5.250000e+01,   -6.234898e+00
   12561,    7.818315e+00,   -5.500000e+01,   -6.234898e+00
   12562,    7.818315e+00,   -5.750000e+01,   -6.234898e+00
   12563,    7.818315e+00,   -6.000000e+01,   -6.234898e+00
   12564,    7.818315e+00,   -6.250000e+01,   -6.234898e+00
   12565,    7.818315e+00,   -6.500000e+01,   -6.234898e+00
   12566,    7.818315e+00,   -6.750000e+01,   -6.234898e+00
   12567,    9.009689e+00,   -2.500000e+00,   -4.338837e+00
   12568,    9.009689e+00,   -5.000000e+00,   -4.338837e+00
   12569,    9.009689e+00,   -7.500000e+00,   -4.338837e+00
   12570,    9.009689e+00,   -1.000000e+01,   -4.338837e+00
   12571,    9.009689e+00,   -1.250000e+01,   -4.338837e+00
   12572,    9.009689e+00,   -1.500000e+01,   -4.338837e+00
   12573,    9.009689e+00,   -1.750000e+01,   -4.338837e+00
   12574,    9.009689e+00,   -2.000000e+01,   -4.338837e+00
   12575,    9.009689e+00,   -2.250000e+01,   -4.338837e+00
   12576,    9.009689e+00,   -2.500000e+01,   -4.338837e+00
   12577,    9.009689e+00,   -2.750000e+01,   -4.338837e+00
   12578,    9.009689e+00,   -3.000000e+01,   -4.338837e+00
   12579,    9.009689e+00,   -3.250000e+01,   -4.338837e+00
   12580,    9.009689e+00,   -3.500000e+01,   -4.338837e+00
   12581,    9.009689e+00,   -3.750000e+01,   -4.338837e+00
   12582,    9.009689e+00,   -4.000000e+01,   -4.338837e+00
   12583,    9.009689e+00,   -4.250000e+01,   -4.338837e+00
   12584,    9.009689e+00,   -4.500000e+01,   -4.338837e+00
   12585,    9.009689e+00,   -4.750000e+01,   -4.338837e+00
   12586,    9.009689e+00,   -5.000000e+01,   -4.338837e+00
   12587,    9.009689e+00,   -5.250000e+01,   -4.338837e+00
   12588,    9.009689e+00,   -5.500000e+01,   -4.338837e+00
   12589,    9.009689e+00,   -5.750000e+01,   -4.338837e+00
   12590,    9.009689e+00,   -6.000000e+01,   -4.338837e+00
   12591,    9.009689e+00,   -6.250000e+01,   -4.338837e+00
   12592,    9.009689e+00,   -6.500000e+01,   -4.338837e+00
   12593,    9.009689e+00,   -6.750000e+01,   -4.338837e+00
   12594,    9.749279e+00,   -2.500000e+00,   -2.225209e+00
   12595,    9.749279e+00,   -5.000000e+00,   -2.225209e+00
   12596,    9.749279e+00,   -7.500000e+00,   -2.225209e+00
   12597,    9.749279e+00,   -1.000000e+01,   -2.225209e+00
   12598,    9.749279e+00,   -1.250000e+01,   -2.225209e+00
   12599,    9.749279e+00,   -1.500000e+01,   -2.225209e+00
   12600,    9.749279e+00,   -1.750000e+01,   -2.225209e+00
   12601,    9.749279e+00,   -2.000000e+01,   -2.225209e+00
   12602,    9.749279e+00,   -2.250000e+01,   -2.225209e+00
   12603,    9.749279e+00,   -2.500000e+01,   -2.225209e+00
   12604,    9.749279e+00,   -2.750000e+01,   -2.225209e+00
   12605,    9.749279e+00,   -3.000000e+01,   -2.225209e+00
   12606,    9.749279e+00,   -3.250000e+01,   -2.225209e+00
   12607,    9.749279e+00,   -3.500000e+01,   -2.225209e+00
   12608,    9.749279e+00,   -3.750000e+01,   -2.225209e+00
   12609,    9.749279e+00,   -4.000000e+01,   -2.225209e+00
   12610,    9.749279e+00,   -4.250000e+01,   -2.225209e+00
   12611,    9.749279e+00,   -4.500000e+01,   -2.225209e+00
   12612,    9.749279e+00,   -4.750000e+01,   -2.225209e+00
   12613,    9.749279e+00,   -5.000000e+01,   -2.225209e+00
   12614,    9.749279e+00,   -5.250000e+01,   -2.225209e+00
   12615,    9.749279e+00,   -5.500000e+01,   -2.225209e+00
   12616,    9.749279e+00,   -5.750000e+01,   -2.225209e+00
   12617,    9.749279e+00,   -6.000000e+01,   -2.225209e+00
   12618,    9.749279e+00,   -6.250000e+01,   -2.225209e+00
   12619,    9.749279e+00,   -6.500000e+01,   -2.225209e+00
   12620,    9.749279e+00,   -6.750000e+01,   -2.225209e+00
   14919,   -1.000000e+01,    1.312290e-31,    0.000000e+00
   14920,   -9.749279e+00,   -1.362548e-16,   -2.225209e+00
   14921,   -9.009689e+00,   -2.656772e-16,   -4.338837e+00
   14922,   -7.818315e+00,   -3.817774e-16,   -6.234898e+00
   14923,   -6.234898e+00,   -4.787337e-16,   -7.818315e+00
   14924,   -4.338837e+00,   -5.516843e-16,   -9.009689e+00
   14925,   -2.225209e+00,   -5.969712e-16,   -9.749279e+00
   14926,   -1.000000e+01,   -7.000000e+01,    0.000000e+00
   14927,   -1.000000e+01,   -6.750000e+01,    1.990051e-15
   14928,   -1.000000e+01,   -6.500000e+01,    1.836970e-15
   14929,   -1.000000e+01,   -6.250000e+01,    1.683889e-15
   14930,   -1.000000e+01,   -6.000000e+01,    1.530808e-15
   14931,   -1.000000e+01,   -5.750000e+01,    1.377728e-15
   14932,   -1.000000e+01,   -5.500000e+01,    1.224647e-15
   14933,   -1.000000e+01,   -5.250000e+01,    1.071566e-15
   14934,   -1.000000e+01,   -5.000000e+01,    9.184851e-16
   14935,   -1.000000e+01,   -4.750000e+01,    7.654042e-16
   14936,   -1.000000e+01,   -4.500000e+01,    6.123234e-16
   14937,   -1.000000e+01,   -4.250000e+01,    4.592425e-16
   14938,   -1.000000e+01,   -4.000000e+01,    3.061617e-16
   14939,   -1.000000e+01,   -3.750000e+01,    1.530808e-16
   14940,   -1.000000e+01,   -3.500000e+01,    0.000000e+00
   14941,   -1.000000e+01,   -3.250000e+01,   -1.530808e-16
   14942,   -1.000000e+01,   -3.000000e+01,   -3.061617e-16
   14943,   -1.000000e+01,   -2.750000e+01,   -4.592425e-16
   14944,   -1.000000e+01,   -2.500000e+01,   -6.123234e-16
   14945,   -1.000000e+01,   -2.250000e+01,   -7.654042e-16
   14946,   -1.000000e+01,   -2.000000e+01,   -9.184851e-16
   14947,   -1.000000e+01,   -1.750000e+01,   -1.071566e-15
   14948,   -1.000000e+01,   -1.500000e+01,   -1.224647e-15
   14949,   -1.000000e+01,   -1.250000e+01,   -1.377728e-15
   14950,   -1.000000e+01,   -1.000000e+01,   -1.530808e-15
   14951,   -1.000000e+01,   -7.500000e+00,   -1.683889e-15
   14952,   -1.000000e+01,   -5.000000e+00,   -1.836970e-15
   14953,   -1.000000e+01,   -2.500000e+00,   -1.990051e-15
   14954,   -2.225209e+00,   -7.000000e+01,   -9.749279e+00
   14955,   -4.338837e+00,   -7.000000e+01,   -9.009689e+00
   14956,   -6.234898e+00,   -7.000000e+01,   -7.818315e+00
   14957,   -7.818315e+00,   -7.000000e+01,   -6.234898e+00
   14958,   -9.009689e+00,   -7.000000e+01,   -4.338837e+00
   14959,   -9.749279e+00,   -7.000000e+01,   -2.225209e+00
   14960,   -2.225209e+00,   -6.750000e+01,   -9.749279e+00
   14961,   -2.225209e+00,   -6.500000e+01,   -9.749279e+00
   14962,   -2.225209e+00,   -6.250000e+01,   -9.749279e+00
   14963,   -2.225209e+00,   -6.000000e+01,   -9.749279e+00
   14964,   -2.225209e+00,   -5.750000e+01,   -9.749279e+00
   14965,   -2.225209e+00,   -5.500000e+01,   -9.749279e+00
   14966,   -2.225209e+00,   -5.250000e+01,   -9.749279e+00
   14967,   -2.225209e+00,   -5.000000e+01,   -9.749279e+00
   14968,   -2.225209e+00,   -4.750000e+01,   -9.749279e+00
   14969,   -2.225209e+00,   -4.500000e+01,   -9.749279e+00
   14970,   -2.225209e+00,   -4.250000e+01,   -9.749279e+00
   14971,   -2.225209e+00,   -4.000000e+01,   -9.749279e+00
   14972,   -2.225209e+00,   -3.750000e+01,   -9.749279e+00
   14973,   -2.225209e+00,   -3.500000e+01,   -9.749279e+00
   14974,   -2.225209e+00,   -3.250000e+01,   -9.749279e+00
   14975,   -2.225209e+00,   -3.000000e+01,   -9.749279e+00
   14976,   -2.225209e+00,   -2.750000e+01,   -9.749279e+00
   14977,   -2.225209e+00,   -2.500000e+01,   -9.749279e+00
   14978,   -2.225209e+00,   -2.250000e+01,   -9.749279e+00
   14979,   -2.225209e+00,   -2.000000e+01,   -9.749279e+00
   14980,   -2.225209e+00,   -1.750000e+01,   -9.749279e+00
   14981,   -2.225209e+00,   -1.500000e+01,   -9.749279e+00
   14982,   -2.225209e+00,   -1.250000e+01,   -9.749279e+00
   14983,   -2.225209e+00,   -1.000000e+01,   -9.749279e+00
   14984,   -2.225209e+00,   -7.500000e+00,   -9.749279e+00
   14985,   -2.225209e+00,   -5.000000e+00,   -9.749279e+00
   14986,   -2.225209e+00,   -2.500000e+00,   -9.749279e+00
   14987,   -4.338837e+00,   -6.750000e+01,   -9.009689e+00
   14988,   -4.338837e+00,   -6.500000e+01,   -9.009689e+00
   14989,   -4.338837e+00,   -6.250000e+01,   -9.009689e+00
   14990,   -4.338837e+00,   -6.000000e+01,   -9.009689e+00
   14991,   -4.338837e+00,   -5.750000e+01,   -9.009689e+00
   14992,   -4.338837e+00,   -5.500000e+01,   -9.009689e+00
   14993,   -4.338837e+00,   -5.250000e+01,   -9.009689e+00
   14994,   -4.338837e+00,   -5.000000e+01,   -9.009689e+00
   14995,   -4.338837e+00,   -4.750000e+01,   -9.009689e+00
   14996,   -4.338837e+00,   -4.500000e+01,   -9.009689e+00
   14997,   -4.338837e+00,   -4.250000e+01,   -9.009689e+00
   14998,   -4.338837e+00,   -4.000000e+01,   -9.009689e+00
   14999,   -4.338837e+00,   -3.750000e+01,   -9.009689e+00
   15000,   -4.338837e+00,   -3.500000e+01,   -9.009689e+00
   15001,   -4.338837e+00,   -3.250000e+01,   -9.009689e+00
   15002,   -4.338837e+00,   -3.000000e+01,   -9.009689e+00
   15003,   -4.338837e+00,   -2.750000e+01,   -9.009689e+00
   15004,   -4.338837e+00,   -2.500000e+01,   -9.009689e+00
   15005,   -4.338837e+00,   -2.250000e+01,   -9.009689e+00
   15006,   -4.338837e+00,   -2.000000e+01,   -9.009689e+00
   15007,   -4.338837e+00,   -1.750000e+01,   -9.009689e+00
   15008,   -4.338837e+00,   -1.500000e+01,   -9.009689e+00
   15009,   -4.338837e+00,   -1.250000e+01,   -9.009689e+00
   15010,   -4.338837e+00,   -1.000000e+01,   -9.009689e+00
   15011,   -4.338837e+00,   -7.500000e+00,   -9.009689e+00
   15012,   -4.338837e+00,   -5.000000e+00,   -9.009689e+00
   15013,   -4.338837e+00,   -2.500000e+00,   -9.009689e+00
   15014,   -6.234898e+00,   -6.750000e+01,   -7.818315e+00
   15015,   -6.234898e+00,   -6.500000e+01,   -7.818315e+00
   15016,   -6.234898e+00,   -6.250000e+01,   -7.818315e+00
   15017,   -6.234898e+00,   -6.000000e+01,   -7.818315e+00
   15018,   -6.234898e+00,   -5.750000e+01,   -7.818315e+00
   15019,   -6.234898e+00,   -5.500000e+01,   -7.818315e+00
   15020,   -6.234898e+00,   -5.250000e+01,   -7.818315e+00
   15021,   -6.234898e+00,   -5.000000e+01,   -7.818315e+00
   15022,   -6.234898e+00,   -4.750000e+01,   -7.818315e+00
   15023,   -6.234898e+00,   -4.500000e+01,   -7.818315e+00
   15024,   -6.234898e+00,   -4.250000e+01,   -7.818315e+00
   15025,   -6.234898e+00,   -4.000000e+01,   -7.818315e+00
   15026,   -6.234898e+00,   -3.750000e+01,   -7.818315e+00
   15027,   -6.234898e+00,   -3.500000e+01,   -7.818315e+00
   15028,   -6.234898e+00,   -3.250000e+01,   -7.818315e+00
   15029,   -6.234898e+00,   -3.000000e+01,   -7.818315e+00
   15030,   -6.234898e+00,   -2.750000e+01,   -7.818315e+00
   15031,   -6.234898e+00,   -2.500000e+01,   -7.818315e+00
   15032,   -6.234898e+00,   -2.250000e+01,   -7.818315e+00
   15033,   -6.234898e+00,   -2.000000e+01,   -7.818315e+00
   15034,   -6.234898e+00,   -1.750000e+01,   -7.818315e+00
   15035,   -6.234898e+00,   -1.500000e+01,   -7.818315e+00
   15036,   -6.234898e+00,   -1.250000e+01,   -7.818315e+00
   15037,   -6.234898e+00,   -1.000000e+01,   -7.818315e+00
   15038,   -6.234898e+00,   -7.500000e+00,   -7.818315e+00
   15039,   -6.234898e+00,   -5.000000e+00,   -7.818315e+00
   15040,   -6.234898e+00,   -2.500000e+00,   -7.818315e+00
   15041,   -7.818315e+00,   -6.750000e+01,   -6.234898e+00
   15042,   -7.818315e+00,   -6.500000e+01,   -6.234898e+00
   15043,   -7.818315e+00,   -6.250000e+01,   -6.234898e+00
   15044,   -7.818315e+00,   -6.000000e+01,   -6.234898e+00
   15045,   -7.818315e+00,   -5.750000e+01,   -6.234898e+00
   15046,   -7.818315e+00,   -5.500000e+01,   -6.234898e+00
   15047,   -7.818315e+00,   -5.250000e+01,   -6.234898e+00
   15048,   -7.818315e+00,   -5.000000e+01,   -6.234898e+00
   15049,   -7.818315e+00,   -4.750000e+01,   -6.234898e+00
   15050,   -7.818315e+00,   -4.500000e+01,   -6.234898e+00
   15051,   -7.818315e+00,   -4.250000e+01,   -6.234898e+00
   15052,   -7.818315e+00,   -4.000000e+01,   -6.234898e+00
   15053,   -7.818315e+00,   -3.750000e+01,   -6.234898e+00
   15054,   -7.818315e+00,   -3.500000e+01,   -6.234898e+00
   15055,   -7.818315e+00,   -3.250000e+01,   -6.234898e+00
   15056,   -7.818315e+00,   -3.000000e+01,   -6.234898e+00
   15057,   -7.818315e+00,   -2.750000e+01,   -6.234898e+00
   15058,   -7.818315e+00,   -2.500000e+01,   -6.234898e+00
   15059,   -7.818315e+00,   -2.250000e+01,   -6.234898e+00
   15060,   -7.818315e+00,   -2.000000e+01,   -6.234898e+00
   15061,   -7.818315e+00,   -1.750000e+01,   -6.234898e+00
   15062,   -7.818315e+00,   -1.500000e+01,   -6.234898e+00
   15063,   -7.818315e+00,   -1.250000e+01,   -6.234898e+00
   15064,   -7.818315e+00,   -1.000000e+01,   -6.234898e+00
   15065,   -7.818315e+00,   -7.500000e+00,   -6.234898e+00
   15066,   -7.818315e+00,   -5.000000e+00,   -6.234898e+00
   15067,   -7.818315e+00,   -2.500000e+00,   -6.234898e+00
   15068,   -9.009689e+00,   -6.750000e+01,   -4.338837e+00
   15069,   -9.009689e+00,   -6.500000e+01,   -4.338837e+00
   15070,   -9.009689e+00,   -6.250000e+01,   -4.338837e+00
   15071,   -9.009689e+00,   -6.000000e+01,   -4.338837e+00
   15072,   -9.009689e+00,   -5.750000e+01,   -4.338837e+00
   15073,   -9.009689e+00,   -5.500000e+01,   -4.338837e+00
   15074,   -9.009689e+00,   -5.250000e+01,   -4.338837e+00
   15075,   -9.009689e+00,   -5.000000e+01,   -4.338837e+00
   15076,   -9.009689e+00,   -4.750000e+01,   -4.338837e+00
   15077,   -9.009689e+00,   -4.500000e+01,   -4.338837e+00
   15078,   -9.009689e+00,   -4.250000e+01,   -4.338837e+00
   15079,   -9.009689e+00,   -4.000000e+01,   -4.338837e+00
   15080,   -9.009689e+00,   -3.750000e+01,   -4.338837e+00
   15081,   -9.009689e+00,   -3.500000e+01,   -4.338837e+00
   15082,   -9.009689e+00,   -3.250000e+01,   -4.338837e+00
   15083,   -9.009689e+00,   -3.000000e+01,   -4.338837e+00
   15084,   -9.009689e+00,   -2.750000e+01,   -4.338837e+00
   15085,   -9.009689e+00,   -2.500000e+01,   -4.338837e+00
   15086,   -9.009689e+00,   -2.250000e+01,   -4.338837e+00
   15087,   -9.009689e+00,   -2.000000e+01,   -4.338837e+00
   15088,   -9.009689e+00,   -1.750000e+01,   -4.338837e+00
   15089,   -9.009689e+00,   -1.500000e+01,   -4.338837e+00
   15090,   -9.009689e+00,   -1.250000e+01,   -4.338837e+00
   15091,   -9.009689e+00,   -1.000000e+01,   -4.338837e+00
   15092,   -9.009689e+00,   -7.500000e+00,   -4.338837e+00
   15093,   -9.009689e+00,   -5.000000e+00,   -4.338837e+00
   15094,   -9.009689e+00,   -2.500000e+00,   -4.338837e+00
   15095,   -9.749279e+00,   -6.750000e+01,   -2.225209e+00
   15096,   -9.749279e+00,   -6.500000e+01,   -2.225209e+00
   15097,   -9.749279e+00,   -6.250000e+01,   -2.225209e+00
   15098,   -9.749279e+00,   -6.000000e+01,   -2.225209e+00
   15099,   -9.749279e+00,   -5.750000e+01,   -2.225209e+00
   15100,   -9.749279e+00,   -5.500000e+01,   -2.225209e+00
   15101,   -9.749279e+00,   -5.250000e+01,   -2.225209e+00
   15102,   -9.749279e+00,   -5.000000e+01,   -2.225209e+00
   15103,   -9.749279e+00,   -4.750000e+01,   -2.225209e+00
   15104,   -9.749279e+00,   -4.500000e+01,   -2.225209e+00
   15105,   -9.749279e+00,   -4.250000e+01,   -2.225209e+00
   15106,   -9.749279e+00,   -4.000000e+01,   -2.225209e+00
   15107,   -9.749279e+00,   -3.750000e+01,   -2.225209e+00
   15108,   -9.749279e+00,   -3.500000e+01,   -2.225209e+00
   15109,   -9.749279e+00,   -3.250000e+01,   -2.225209e+00
   15110,   -9.749279e+00,   -3.000000e+01,   -2.225209e+00
   15111,   -9.749279e+00,   -2.750000e+01,   -2.225209e+00
   15112,   -9.749279e+00,   -2.500000e+01,   -2.225209e+00
   15113,   -9.749279e+00,   -2.250000e+01,   -2.225209e+00
   15114,   -9.749279e+00,   -2.000000e+01,   -2.225209e+00
   15115,   -9.749279e+00,   -1.750000e+01,   -2.225209e+00
   15116,   -9.749279e+00,   -1.500000e+01,   -2.225209e+00
   15117,   -9.749279e+00,   -1.250000e+01,   -2.225209e+00
   15118,   -9.749279e+00,   -1.000000e+01,   -2.225209e+00
   15119,   -9.749279e+00,   -7.500000e+00,   -2.225209e+00
   15120,   -9.749279e+00,   -5.000000e+00,   -2.225209e+00
   15121,   -9.749279e+00,   -2.500000e+00,   -2.225209e+00
   15122,   -1.100000e+01,    1.312290e-31,    0.000000e+00
   15123,   -2.447730e+00,   -6.566683e-16,   -1.072421e+01
   15124,   -4.772721e+00,   -6.068528e-16,   -9.910658e+00
   15125,   -6.858388e+00,   -5.266071e-16,   -8.600146e+00
   15126,   -8.600146e+00,   -4.199551e-16,   -6.858388e+00
   15127,   -9.910658e+00,   -2.922449e-16,   -4.772721e+00
   15128,   -1.072421e+01,   -1.498803e-16,   -2.447730e+00
   15129,   -1.100000e+01,   -7.000000e+01,    0.000000e+00
   15130,   -1.100000e+01,   -2.500000e+00,   -1.990051e-15
   15131,   -1.100000e+01,   -5.000000e+00,   -1.836970e-15
   15132,   -1.100000e+01,   -7.500000e+00,   -1.683889e-15
   15133,   -1.100000e+01,   -1.000000e+01,   -1.530808e-15
   15134,   -1.100000e+01,   -1.250000e+01,   -1.377728e-15
   15135,   -1.100000e+01,   -1.500000e+01,   -1.224647e-15
   15136,   -1.100000e+01,   -1.750000e+01,   -1.071566e-15
   15137,   -1.100000e+01,   -2.000000e+01,   -9.184851e-16
   15138,   -1.100000e+01,   -2.250000e+01,   -7.654042e-16
   15139,   -1.100000e+01,   -2.500000e+01,   -6.123234e-16
   15140,   -1.100000e+01,   -2.750000e+01,   -4.592425e-16
   15141,   -1.100000e+01,   -3.000000e+01,   -3.061617e-16
   15142,   -1.100000e+01,   -3.250000e+01,   -1.530808e-16
   15143,   -1.100000e+01,   -3.500000e+01,    0.000000e+00
   15144,   -1.100000e+01,   -3.750000e+01,    1.530808e-16
   15145,   -1.100000e+01,   -4.000000e+01,    3.061617e-16
   15146,   -1.100000e+01,   -4.250000e+01,    4.592425e-16
   15147,   -1.100000e+01,   -4.500000e+01,    6.123234e-16
   15148,   -1.100000e+01,   -4.750000e+01,    7.654042e-16
   15149,   -1.100000e+01,   -5.000000e+01,    9.184851e-16
   15150,   -1.100000e+01,   -5.250000e+01,    1.071566e-15
   15151,   -1.100000e+01,   -5.500000e+01,    1.224647e-15
   15152,   -1.100000e+01,   -5.750000e+01,    1.377728e-15
   15153,   -1.100000e+01,   -6.000000e+01,    1.530808e-15
   15154,   -1.100000e+01,   -6.250000e+01,    1.683889e-15
   15155,   -1.100000e+01,   -6.500000e+01,    1.836970e-15
   15156,   -1.100000e+01,   -6.750000e+01,    1.990051e-15
   15157,   -1.072421e+01,   -7.000000e+01,   -2.447730e+00
   15158,   -9.910658e+00,   -7.000000e+01,   -4.772721e+00
   15159,   -8.600146e+00,   -7.000000e+01,   -6.858388e+00
   15160,   -6.858388e+00,   -7.000000e+01,   -8.600146e+00
   15161,   -4.772721e+00,   -7.000000e+01,   -9.910658e+00
   15162,   -2.447730e+00,   -7.000000e+01,   -1.072421e+01
   15163,   -2.447730e+00,   -2.500000e+00,   -1.072421e+01
   15164,   -2.447730e+00,   -5.000000e+00,   -1.072421e+01
   15165,   -2.447730e+00,   -7.500000e+00,   -1.072421e+01
   15166,   -2.447730e+00,   -1.000000e+01,   -1.072421e+01
   15167,   -2.447730e+00,   -1.250000e+01,   -1.072421e+01
   15168,   -2.447730e+00,   -1.500000e+01,   -1.072421e+01
   15169,   -2.447730e+00,   -1.750000e+01,   -1.072421e+01
   15170,   -2.447730e+00,   -2.000000e+01,   -1.072421e+01
   15171,   -2.447730e+00,   -2.250000e+01,   -1.072421e+01
   15172,   -2.447730e+00,   -2.500000e+01,   -1.072421e+01
   15173,   -2.447730e+00,   -2.750000e+01,   -1.072421e+01
   15174,   -2.447730e+00,   -3.000000e+01,   -1.072421e+01
   15175,   -2.447730e+00,   -3.250000e+01,   -1.072421e+01
   15176,   -2.447730e+00,   -3.500000e+01,   -1.072421e+01
   15177,   -2.447730e+00,   -3.750000e+01,   -1.072421e+01
   15178,   -2.447730e+00,   -4.000000e+01,   -1.072421e+01
   15179,   -2.447730e+00,   -4.250000e+01,   -1.072421e+01
   15180,   -2.447730e+00,   -4.500000e+01,   -1.072421e+01
   15181,   -2.447730e+00,   -4.750000e+01,   -1.072421e+01
   15182,   -2.447730e+00,   -5.000000e+01,   -1.072421e+01
   15183,   -2.447730e+00,   -5.250000e+01,   -1.072421e+01
   15184,   -2.447730e+00,   -5.500000e+01,   -1.072421e+01
   15185,   -2.447730e+00,   -5.750000e+01,   -1.072421e+01
   15186,   -2.447730e+00,   -6.000000e+01,   -1.072421e+01
   15187,   -2.447730e+00,   -6.250000e+01,   -1.072421e+01
   15188,   -2.447730e+00,   -6.500000e+01,   -1.072421e+01
   15189,   -2.447730e+00,   -6.750000e+01,   -1.072421e+01
   15190,   -4.772721e+00,   -2.500000e+00,   -9.910658e+00
   15191,   -4.772721e+00,   -5.000000e+00,   -9.910658e+00
   15192,   -4.772721e+00,   -7.500000e+00,   -9.910658e+00
   15193,   -4.772721e+00,   -1.000000e+01,   -9.910658e+00
   15194,   -4.772721e+00,   -1.250000e+01,   -9.910658e+00
   15195,   -4.772721e+00,   -1.500000e+01,   -9.910658e+00
   15196,   -4.772721e+00,   -1.750000e+01,   -9.910658e+00
   15197,   -4.772721e+00,   -2.000000e+01,   -9.910658e+00
   15198,   -4.772721e+00,   -2.250000e+01,   -9.910658e+00
   15199,   -4.772721e+00,   -2.500000e+01,   -9.910658e+00
   15200,   -4.772721e+00,   -2.750000e+01,   -9.910658e+00
   15201,   -4.772721e+00,   -3.000000e+01,   -9.910658e+00
   15202,   -4.772721e+00,   -3.250000e+01,   -9.910658e+00
   15203,   -4.772721e+00,   -3.500000e+01,   -9.910658e+00
   15204,   -4.772721e+00,   -3.750000e+01,   -9.910658e+00
   15205,   -4.772721e+00,   -4.000000e+01,   -9.910658e+00
   15206,   -4.772721e+00,   -4.250000e+01,   -9.910658e+00
   15207,   -4.772721e+00,   -4.500000e+01,   -9.910658e+00
   15208,   -4.772721e+00,   -4.750000e+01,   -9.910658e+00
   15209,   -4.772721e+00,   -5.000000e+01,   -9.910658e+00
   15210,   -4.772721e+00,   -5.250000e+01,   -9.910658e+00
   15211,   -4.772721e+00,   -5.500000e+01,   -9.910658e+00
   15212,   -4.772721e+00,   -5.750000e+01,   -9.910658e+00
   15213,   -4.772721e+00,   -6.000000e+01,   -9.910658e+00
   15214,   -4.772721e+00,   -6.250000e+01,   -9.910658e+00
   15215,   -4.772721e+00,   -6.500000e+01,   -9.910658e+00
   15216,   -4.772721e+00,   -6.750000e+01,   -9.910658e+00
   15217,   -6.858388e+00,   -2.500000e+00,   -8.600146e+00
   15218,   -6.858388e+00,   -5.000000e+00,   -8.600146e+00
   15219,   -6.858388e+00,   -7.500000e+00,   -8.600146e+00
   15220,   -6.858388e+00,   -1.000000e+01,   -8.600146e+00
   15221,   -6.858388e+00,   -1.250000e+01,   -8.600146e+00
   15222,   -6.858388e+00,   -1.500000e+01,   -8.600146e+00
   15223,   -6.858388e+00,   -1.750000e+01,   -8.600146e+00
   15224,   -6.858388e+00,   -2.000000e+01,   -8.600146e+00
   15225,   -6.858388e+00,   -2.250000e+01,   -8.600146e+00
   15226,   -6.858388e+00,   -2.500000e+01,   -8.600146e+00
   15227,   -6.858388e+00,   -2.750000e+01,   -8.600146e+00
   15228,   -6.858388e+00,   -3.000000e+01,   -8.600146e+00
   15229,   -6.858388e+00,   -3.250000e+01,   -8.600146e+00
   15230,   -6.858388e+00,   -3.500000e+01,   -8.600146e+00
   15231,   -6.858388e+00,   -3.750000e+01,   -8.600146e+00
   15232,   -6.858388e+00,   -4.000000e+01,   -8.600146e+00
   15233,   -6.858388e+00,   -4.250000e+01,   -8.600146e+00
   15234,   -6.858388e+00,   -4.500000e+01,   -8.600146e+00
   15235,   -6.858388e+00,   -4.750000e+01,   -8.600146e+00
   15236,   -6.858388e+00,   -5.000000e+01,   -8.600146e+00
   15237,   -6.858388e+00,   -5.250000e+01,   -8.600146e+00
   15238,   -6.858388e+00,   -5.500000e+01,   -8.600146e+00
   15239,   -6.858388e+00,   -5.750000e+01,   -8.600146e+00
   15240,   -6.858388e+00,   -6.000000e+01,   -8.600146e+00
   15241,   -6.858388e+00,   -6.250000e+01,   -8.600146e+00
   15242,   -6.858388e+00,   -6.500000e+01,   -8.600146e+00
   15243,   -6.858388e+00,   -6.750000e+01,   -8.600146e+00
   15244,   -8.600146e+00,   -2.500000e+00,   -6.858388e+00
   15245,   -8.600146e+00,   -5.000000e+00,   -6.858388e+00
   15246,   -8.600146e+00,   -7.500000e+00,   -6.858388e+00
   15247,   -8.600146e+00,   -1.000000e+01,   -6.858388e+00
   15248,   -8.600146e+00,   -1.250000e+01,   -6.858388e+00
   15249,   -8.600146e+00,   -1.500000e+01,   -6.858388e+00
   15250,   -8.600146e+00,   -1.750000e+01,   -6.858388e+00
   15251,   -8.600146e+00,   -2.000000e+01,   -6.858388e+00
   15252,   -8.600146e+00,   -2.250000e+01,   -6.858388e+00
   15253,   -8.600146e+00,   -2.500000e+01,   -6.858388e+00
   15254,   -8.600146e+00,   -2.750000e+01,   -6.858388e+00
   15255,   -8.600146e+00,   -3.000000e+01,   -6.858388e+00
   15256,   -8.600146e+00,   -3.250000e+01,   -6.858388e+00
   15257,   -8.600146e+00,   -3.500000e+01,   -6.858388e+00
   15258,   -8.600146e+00,   -3.750000e+01,   -6.858388e+00
   15259,   -8.600146e+00,   -4.000000e+01,   -6.858388e+00
   15260,   -8.600146e+00,   -4.250000e+01,   -6.858388e+00
   15261,   -8.600146e+00,   -4.500000e+01,   -6.858388e+00
   15262,   -8.600146e+00,   -4.750000e+01,   -6.858388e+00
   15263,   -8.600146e+00,   -5.000000e+01,   -6.858388e+00
   15264,   -8.600146e+00,   -5.250000e+01,   -6.858388e+00
   15265,   -8.600146e+00,   -5.500000e+01,   -6.858388e+00
   15266,   -8.600146e+00,   -5.750000e+01,   -6.858388e+00
   15267,   -8.600146e+00,   -6.000000e+01,   -6.858388e+00
   15268,   -8.600146e+00,   -6.250000e+01,   -6.858388e+00
   15269,   -8.600146e+00,   -6.500000e+01,   -6.858388e+00
   15270,   -8.600146e+00,   -6.750000e+01,   -6.858388e+00
   15271,   -9.910658e+00,   -2.500000e+00,   -4.772721e+00
   15272,   -9.910658e+00,   -5.000000e+00,   -4.772721e+00
   15273,   -9.910658e+00,   -7.500000e+00,   -4.772721e+00
   15274,   -9.910658e+00,   -1.000000e+01,   -4.772721e+00
   15275,   -9.910658e+00,   -1.250000e+01,   -4.772721e+00
   15276,   -9.910658e+00,   -1.500000e+01,   -4.772721e+00
   15277,   -9.910658e+00,   -1.750000e+01,   -4.772721e+00
   15278,   -9.910658e+00,   -2.000000e+01,   -4.772721e+00
   15279,   -9.910658e+00,   -2.250000e+01,   -4.772721e+00
   15280,   -9.910658e+00,   -2.500000e+01,   -4.772721e+00
   15281,   -9.910658e+00,   -2.750000e+01,   -4.772721e+00
   15282,   -9.910658e+00,   -3.000000e+01,   -4.772721e+00
   15283,   -9.910658e+00,   -3.250000e+01,   -4.772721e+00
   15284,   -9.910658e+00,   -3.500000e+01,   -4.772721e+00
   15285,   -9.910658e+00,   -3.750000e+01,   -4.772721e+00
   15286,   -9.910658e+00,   -4.000000e+01,   -4.772721e+00
   15287,   -9.910658e+00,   -4.250000e+01,   -4.772721e+00
   15288,   -9.910658e+00,   -4.500000e+01,   -4.772721e+00
   15289,   -9.910658e+00,   -4.750000e+01,   -4.772721e+00
   15290,   -9.910658e+00,   -5.000000e+01,   -4.772721e+00
   15291,   -9.910658e+00,   -5.250000e+01,   -4.772721e+00
   15292,   -9.910658e+00,   -5.500000e+01,   -4.772721e+00
   15293,   -9.910658e+00,   -5.750000e+01,   -4.772721e+00
   15294,   -9.910658e+00,   -6.000000e+01,   -4.772721e+00
   15295,   -9.910658e+00,   -6.250000e+01,   -4.772721e+00
   15296,   -9.910658e+00,   -6.500000e+01,   -4.772721e+00
   15297,   -9.910658e+00,   -6.750000e+01,   -4.772721e+00
   15298,   -1.072421e+01,   -2.500000e+00,   -2.447730e+00
   15299,   -1.072421e+01,   -5.000000e+00,   -2.447730e+00
   15300,   -1.072421e+01,   -7.500000e+00,   -2.447730e+00
   15301,   -1.072421e+01,   -1.000000e+01,   -2.447730e+00
   15302,   -1.072421e+01,   -1.250000e+01,   -2.447730e+00
   15303,   -1.072421e+01,   -1.500000e+01,   -2.447730e+00
   15304,   -1.072421e+01,   -1.750000e+01,   -2.447730e+00
   15305,   -1.072421e+01,   -2.000000e+01,   -2.447730e+00
   15306,   -1.072421e+01,   -2.250000e+01,   -2.447730e+00
   15307,   -1.072421e+01,   -2.500000e+01,   -2.447730e+00
   15308,   -1.072421e+01,   -2.750000e+01,   -2.447730e+00
   15309,   -1.072421e+01,   -3.000000e+01,   -2.447730e+00
   15310,   -1.072421e+01,   -3.250000e+01,   -2.447730e+00
   15311,   -1.072421e+01,   -3.500000e+01,   -2.447730e+00
   15312,   -1.072421e+01,   -3.750000e+01,   -2.447730e+00
   15313,   -1.072421e+01,   -4.000000e+01,   -2.447730e+00
   15314,   -1.072421e+01,   -4.250000e+01,   -2.447730e+00
   15315,   -1.072421e+01,   -4.500000e+01,   -2.447730e+00
   15316,   -1.072421e+01,   -4.750000e+01,   -2.447730e+00
   15317,   -1.072421e+01,   -5.000000e+01,   -2.447730e+00
   15318,   -1.072421e+01,   -5.250000e+01,   -2.447730e+00
   15319,   -1.072421e+01,   -5.500000e+01,   -2.447730e+00
   15320,   -1.072421e+01,   -5.750000e+01,   -2.447730e+00
   15321,   -1.072421e+01,   -6.000000e+01,   -2.447730e+00
   15322,   -1.072421e+01,   -6.250000e+01,   -2.447730e+00
   15323,   -1.072421e+01,   -6.500000e+01,   -2.447730e+00
   15324,   -1.072421e+01,   -6.750000e+01,   -2.447730e+00
********************************** E L E M E N T S ****************************
*ELEMENT, TYPE=C3D8I, ELSET=anchor
       1,    5739,    5711,    5694,    5730,    5429,    5355,    5354,    5430
       2,    5740,    5728,    5711,    5739,    5431,    5356,    5355,    5429
       3,    5604,    5552,    5728,    5740,    5327,    5326,    5356,    5431
       4,    5738,    5587,    5604,    5740,    5432,    5328,    5327,    5431
       5,    5737,    5738,    5740,    5739,    5433,    5432,    5431,    5429
       6,    5729,    5737,    5739,    5730,    5434,    5433,    5429,    5430
       7,    5736,    5570,    5587,    5738,    5435,    5329,    5328,    5432
       8,    5735,    5736,    5738,    5737,    5436,    5435,    5432,    5433
       9,    5731,    5735,    5737,    5729,    5437,    5436,    5433,    5434
      10,    5734,    5553,    5570,    5736,    5438,    5330,    5329,    5435
      11,    5733,    5734,    5736,    5735,    5439,    5438,    5435,    5436
      12,    5732,    5733,    5735,    5731,    5440,    5439,    5436,    5437
      13,    5514,    5463,    5553,    5734,    5309,    5306,    5330,    5438
      14,    5497,    5514,    5734,    5733,    5308,    5309,    5438,    5439
      15,    5480,    5497,    5733,    5732,    5307,    5308,    5439,    5440
      16,    5643,    5458,    5480,    5732,    5351,    5301,    5307,    5440
      17,    5660,    5643,    5732,    5731,    5352,    5351,    5440,    5437
      18,    5677,    5660,    5731,    5729,    5353,    5352,    5437,    5434
      19,    5694,    5677,    5729,    5730,    5354,    5353,    5434,    5430
      20,    5751,    5710,    5693,    5742,    5739,    5711,    5694,    5730
      21,    5752,    5727,    5710,    5751,    5740,    5728,    5711,    5739
      22,    5605,    5551,    5727,    5752,    5604,    5552,    5728,    5740
      23,    5750,    5588,    5605,    5752,    5738,    5587,    5604,    5740
      24,    5749,    5750,    5752,    5751,    5737,    5738,    5740,    5739
      25,    5741,    5749,    5751,    5742,    5729,    5737,    5739,    5730
      26,    5748,    5571,    5588,    5750,    5736,    5570,    5587,    5738
      27,    5747,    5748,    5750,    5749,    5735,    5736,    5738,    5737
      28,    5743,    5747,    5749,    5741,    5731,    5735,    5737,    5729
      29,    5746,    5554,    5571,    5748,    5734,    5553,    5570,    5736
      30,    5745,    5746,    5748,    5747,    5733,    5734,    5736,    5735
      31,    5744,    5745,    5747,    5743,    5732,    5733,    5735,    5731
      32,    5515,    5464,    5554,    5746,    5514,    5463,    5553,    5734
      33,    5498,    5515,    5746,    5745,    5497,    5514,    5734,    5733
      34,    5481,    5498,    5745,    5744,    5480,    5497,    5733,    5732
      35,    5642,    5457,    5481,    5744,    5643,    5458,    5480,    5732
      36,    5659,    5642,    5744,    5743,    5660,    5643,    5732,    5731
      37,    5676,    5659,    5743,    5741,    5677,    5660,    5731,    5729
      38,    5693,    5676,    5741,    5742,    5694,    5677,    5729,    5730
      39,    5763,    5709,    5692,    5754,    5751,    5710,    5693,    5742
      40,    5764,    5726,    5709,    5763,    5752,    5727,    5710,    5751
      41,    5606,    5550,    5726,    5764,    5605,    5551,    5727,    5752
      42,    5762,    5589,    5606,    5764,    5750,    5588,    5605,    5752
      43,    5761,    5762,    5764,    5763,    5749,    5750,    5752,    5751
      44,    5753,    5761,    5763,    5754,    5741,    5749,    5751,    5742
      45,    5760,    5572,    5589,    5762,    5748,    5571,    5588,    5750
      46,    5759,    5760,    5762,    5761,    5747,    5748,    5750,    5749
      47,    5755,    5759,    5761,    5753,    5743,    5747,    5749,    5741
      48,    5758,    5555,    5572,    5760,    5746,    5554,    5571,    5748
      49,    5757,    5758,    5760,    5759,    5745,    5746,    5748,    5747
      50,    5756,    5757,    5759,    5755,    5744,    5745,    5747,    5743
      51,    5516,    5465,    5555,    5758,    5515,    5464,    5554,    5746
      52,    5499,    5516,    5758,    5757,    5498,    5515,    5746,    5745
      53,    5482,    5499,    5757,    5756,    5481,    5498,    5745,    5744
      54,    5641,    5456,    5482,    5756,    5642,    5457,    5481,    5744
      55,    5658,    5641,    5756,    5755,    5659,    5642,    5744,    5743
      56,    5675,    5658,    5755,    5753,    5676,    5659,    5743,    5741
      57,    5692,    5675,    5753,    5754,    5693,    5676,    5741,    5742
      58,    5775,    5708,    5691,    5766,    5763,    5709,    5692,    5754
      59,    5776,    5725,    5708,    5775,    5764,    5726,    5709,    5763
      60,    5607,    5549,    5725,    5776,    5606,    5550,    5726,    5764
      61,    5774,    5590,    5607,    5776,    5762,    5589,    5606,    5764
      62,    5773,    5774,    5776,    5775,    5761,    5762,    5764,    5763
      63,    5765,    5773,    5775,    5766,    5753,    5761,    5763,    5754
      64,    5772,    5573,    5590,    5774,    5760,    5572,    5589,    5762
      65,    5771,    5772,    5774,    5773,    5759,    5760,    5762,    5761
      66,    5767,    5771,    5773,    5765,    5755,    5759,    5761,    5753
      67,    5770,    5556,    5573,    5772,    5758,    5555,    5572,    5760
      68,    5769,    5770,    5772,    5771,    5757,    5758,    5760,    5759
      69,    5768,    5769,    5771,    5767,    5756,    5757,    5759,    5755
      70,    5517,    5466,    5556,    5770,    5516,    5465,    5555,    5758
      71,    5500,    5517,    5770,    5769,    5499,    5516,    5758,    5757
      72,    5483,    5500,    5769,    5768,    5482,    5499,    5757,    5756
      73,    5640,    5455,    5483,    5768,    5641,    5456,    5482,    5756
      74,    5657,    5640,    5768,    5767,    5658,    5641,    5756,    5755
      75,    5674,    5657,    5767,    5765,    5675,    5658,    5755,    5753
      76,    5691,    5674,    5765,    5766,    5692,    5675,    5753,    5754
      77,    5787,    5707,    5690,    5778,    5775,    5708,    5691,    5766
      78,    5788,    5724,    5707,    5787,    5776,    5725,    5708,    5775
      79,    5608,    5548,    5724,    5788,    5607,    5549,    5725,    5776
      80,    5786,    5591,    5608,    5788,    5774,    5590,    5607,    5776
      81,    5785,    5786,    5788,    5787,    5773,    5774,    5776,    5775
      82,    5777,    5785,    5787,    5778,    5765,    5773,    5775,    5766
      83,    5784,    5574,    5591,    5786,    5772,    5573,    5590,    5774
      84,    5783,    5784,    5786,    5785,    5771,    5772,    5774,    5773
      85,    5779,    5783,    5785,    5777,    5767,    5771,    5773,    5765
      86,    5782,    5557,    5574,    5784,    5770,    5556,    5573,    5772
      87,    5781,    5782,    5784,    5783,    5769,    5770,    5772,    5771
      88,    5780,    5781,    5783,    5779,    5768,    5769,    5771,    5767
      89,    5518,    5467,    5557,    5782,    5517,    5466,    5556,    5770
      90,    5501,    5518,    5782,    5781,    5500,    5517,    5770,    5769
      91,    5484,    5501,    5781,    5780,    5483,    5500,    5769,    5768
      92,    5639,    5454,    5484,    5780,    5640,    5455,    5483,    5768
      93,    5656,    5639,    5780,    5779,    5657,    5640,    5768,    5767
      94,    5673,    5656,    5779,    5777,    5674,    5657,    5767,    5765
      95,    5690,    5673,    5777,    5778,    5691,    5674,    5765,    5766
      96,    5799,    5706,    5689,    5790,    5787,    5707,    5690,    5778
      97,    5800,    5723,    5706,    5799,    5788,    5724,    5707,    5787
      98,    5609,    5547,    5723,    5800,    5608,    5548,    5724,    5788
      99,    5798,    5592,    5609,    5800,    5786,    5591,    5608,    5788
     100,    5797,    5798,    5800,    5799,    5785,    5786,    5788,    5787
     101,    5789,    5797,    5799,    5790,    5777,    5785,    5787,    5778
     102,    5796,    5575,    5592,    5798,    5784,    5574,    5591,    5786
     103,    5795,    5796,    5798,    5797,    5783,    5784,    5786,    5785
     104,    5791,    5795,    5797,    5789,    5779,    5783,    5785,    5777
     105,    5794,    5558,    5575,    5796,    5782,    5557,    5574,    5784
     106,    5793,    5794,    5796,    5795,    5781,    5782,    5784,    5783
     107,    5792,    5793,    5795,    5791,    5780,    5781,    5783,    5779
     108,    5519,    5468,    5558,    5794,    5518,    5467,    5557,    5782
     109,    5502,    5519,    5794,    5793,    5501,    5518,    5782,    5781
     110,    5485,    5502,    5793,    5792,    5484,    5501,    5781,    5780
     111,    5638,    5453,    5485,    5792,    5639,    5454,    5484,    5780
     112,    5655,    5638,    5792,    5791,    5656,    5639,    5780,    5779
     113,    5672,    5655,    5791,    5789,    5673,    5656,    5779,    5777
     114,    5689,    5672,    5789,    5790,    5690,    5673,    5777,    5778
     115,    5811,    5705,    5688,    5802,    5799,    5706,    5689,    5790
     116,    5812,    5722,    5705,    5811,    5800,    5723,    5706,    5799
     117,    5610,    5546,    5722,    5812,    5609,    5547,    5723,    5800
     118,    5810,    5593,    5610,    5812,    5798,    5592,    5609,    5800
     119,    5809,    5810,    5812,    5811,    5797,    5798,    5800,    5799
     120,    5801,    5809,    5811,    5802,    5789,    5797,    5799,    5790
     121,    5808,    5576,    5593,    5810,    5796,    5575,    5592,    5798
     122,    5807,    5808,    5810,    5809,    5795,    5796,    5798,    5797
     123,    5803,    5807,    5809,    5801,    5791,    5795,    5797,    5789
     124,    5806,    5559,    5576,    5808,    5794,    5558,    5575,    5796
     125,    5805,    5806,    5808,    5807,    5793,    5794,    5796,    5795
     126,    5804,    5805,    5807,    5803,    5792,    5793,    5795,    5791
     127,    5520,    5469,    5559,    5806,    5519,    5468,    5558,    5794
     128,    5503,    5520,    5806,    5805,    5502,    5519,    5794,    5793
     129,    5486,    5503,    5805,    5804,    5485,    5502,    5793,    5792
     130,    5637,    5452,    5486,    5804,    5638,    5453,    5485,    5792
     131,    5654,    5637,    5804,    5803,    5655,    5638,    5792,    5791
     132,    5671,    5654,    5803,    5801,    5672,    5655,    5791,    5789
     133,    5688,    5671,    5801,    5802,    5689,    5672,    5789,    5790
     134,    5823,    5704,    5687,    5814,    5811,    5705,    5688,    5802
     135,    5824,    5721,    5704,    5823,    5812,    5722,    5705,    5811
     136,    5611,    5545,    5721,    5824,    5610,    5546,    5722,    5812
     137,    5822,    5594,    5611,    5824,    5810,    5593,    5610,    5812
     138,    5821,    5822,    5824,    5823,    5809,    5810,    5812,    5811
     139,    5813,    5821,    5823,    5814,    5801,    5809,    5811,    5802
     140,    5820,    5577,    5594,    5822,    5808,    5576,    5593,    5810
     141,    5819,    5820,    5822,    5821,    5807,    5808,    5810,    5809
     142,    5815,    5819,    5821,    5813,    5803,    5807,    5809,    5801
     143,    5818,    5560,    5577,    5820,    5806,    5559,    5576,    5808
     144,    5817,    5818,    5820,    5819,    5805,    5806,    5808,    5807
     145,    5816,    5817,    5819,    5815,    5804,    5805,    5807,    5803
     146,    5521,    5470,    5560,    5818,    5520,    5469,    5559,    5806
     147,    5504,    5521,    5818,    5817,    5503,    5520,    5806,    5805
     148,    5487,    5504,    5817,    5816,    5486,    5503,    5805,    5804
     149,    5636,    5451,    5487,    5816,    5637,    5452,    5486,    5804
     150,    5653,    5636,    5816,    5815,    5654,    5637,    5804,    5803
     151,    5670,    5653,    5815,    5813,    5671,    5654,    5803,    5801
     152,    5687,    5670,    5813,    5814,    5688,    5671,    5801,    5802
     153,    5835,    5703,    5686,    5826,    5823,    5704,    5687,    5814
     154,    5836,    5720,    5703,    5835,    5824,    5721,    5704,    5823
     155,    5612,    5544,    5720,    5836,    5611,    5545,    5721,    5824
     156,    5834,    5595,    5612,    5836,    5822,    5594,    5611,    5824
     157,    5833,    5834,    5836,    5835,    5821,    5822,    5824,    5823
     158,    5825,    5833,    5835,    5826,    5813,    5821,    5823,    5814
     159,    5832,    5578,    5595,    5834,    5820,    5577,    5594,    5822
     160,    5831,    5832,    5834,    5833,    5819,    5820,    5822,    5821
     161,    5827,    5831,    5833,    5825,    5815,    5819,    5821,    5813
     162,    5830,    5561,    5578,    5832,    5818,    5560,    5577,    5820
     163,    5829,    5830,    5832,    5831,    5817,    5818,    5820,    5819
     164,    5828,    5829,    5831,    5827,    5816,    5817,    5819,    5815
     165,    5522,    5471,    5561,    5830,    5521,    5470,    5560,    5818
     166,    5505,    5522,    5830,    5829,    5504,    5521,    5818,    5817
     167,    5488,    5505,    5829,    5828,    5487,    5504,    5817,    5816
     168,    5635,    5450,    5488,    5828,    5636,    5451,    5487,    5816
     169,    5652,    5635,    5828,    5827,    5653,    5636,    5816,    5815
     170,    5669,    5652,    5827,    5825,    5670,    5653,    5815,    5813
     171,    5686,    5669,    5825,    5826,    5687,    5670,    5813,    5814
     172,    5847,    5702,    5685,    5838,    5835,    5703,    5686,    5826
     173,    5848,    5719,    5702,    5847,    5836,    5720,    5703,    5835
     174,    5613,    5543,    5719,    5848,    5612,    5544,    5720,    5836
     175,    5846,    5596,    5613,    5848,    5834,    5595,    5612,    5836
     176,    5845,    5846,    5848,    5847,    5833,    5834,    5836,    5835
     177,    5837,    5845,    5847,    5838,    5825,    5833,    5835,    5826
     178,    5844,    5579,    5596,    5846,    5832,    5578,    5595,    5834
     179,    5843,    5844,    5846,    5845,    5831,    5832,    5834,    5833
     180,    5839,    5843,    5845,    5837,    5827,    5831,    5833,    5825
     181,    5842,    5562,    5579,    5844,    5830,    5561,    5578,    5832
     182,    5841,    5842,    5844,    5843,    5829,    5830,    5832,    5831
     183,    5840,    5841,    5843,    5839,    5828,    5829,    5831,    5827
     184,    5523,    5472,    5562,    5842,    5522,    5471,    5561,    5830
     185,    5506,    5523,    5842,    5841,    5505,    5522,    5830,    5829
     186,    5489,    5506,    5841,    5840,    5488,    5505,    5829,    5828
     187,    5634,    5449,    5489,    5840,    5635,    5450,    5488,    5828
     188,    5651,    5634,    5840,    5839,    5652,    5635,    5828,    5827
     189,    5668,    5651,    5839,    5837,    5669,    5652,    5827,    5825
     190,    5685,    5668,    5837,    5838,    5686,    5669,    5825,    5826
     191,    5859,    5701,    5684,    5850,    5847,    5702,    5685,    5838
     192,    5860,    5718,    5701,    5859,    5848,    5719,    5702,    5847
     193,    5614,    5542,    5718,    5860,    5613,    5543,    5719,    5848
     194,    5858,    5597,    5614,    5860,    5846,    5596,    5613,    5848
     195,    5857,    5858,    5860,    5859,    5845,    5846,    5848,    5847
     196,    5849,    5857,    5859,    5850,    5837,    5845,    5847,    5838
     197,    5856,    5580,    5597,    5858,    5844,    5579,    5596,    5846
     198,    5855,    5856,    5858,    5857,    5843,    5844,    5846,    5845
     199,    5851,    5855,    5857,    5849,    5839,    5843,    5845,    5837
     200,    5854,    5563,    5580,    5856,    5842,    5562,    5579,    5844
     201,    5853,    5854,    5856,    5855,    5841,    5842,    5844,    5843
     202,    5852,    5853,    5855,    5851,    5840,    5841,    5843,    5839
     203,    5524,    5473,    5563,    5854,    5523,    5472,    5562,    5842
     204,    5507,    5524,    5854,    5853,    5506,    5523,    5842,    5841
     205,    5490,    5507,    5853,    5852,    5489,    5506,    5841,    5840
     206,    5633,    5448,    5490,    5852,    5634,    5449,    5489,    5840
     207,    5650,    5633,    5852,    5851,    5651,    5634,    5840,    5839
     208,    5667,    5650,    5851,    5849,    5668,    5651,    5839,    5837
     209,    5684,    5667,    5849,    5850,    5685,    5668,    5837,    5838
     210,    5871,    5700,    5683,    5862,    5859,    5701,    5684,    5850
     211,    5872,    5717,    5700,    5871,    5860,    5718,    5701,    5859
     212,    5615,    5541,    5717,    5872,    5614,    5542,    5718,    5860
     213,    5870,    5598,    5615,    5872,    5858,    5597,    5614,    5860
     214,    5869,    5870,    5872,    5871,    5857,    5858,    5860,    5859
     215,    5861,    5869,    5871,    5862,    5849,    5857,    5859,    5850
     216,    5868,    5581,    5598,    5870,    5856,    5580,    5597,    5858
     217,    5867,    5868,    5870,    5869,    5855,    5856,    5858,    5857
     218,    5863,    5867,    5869,    5861,    5851,    5855,    5857,    5849
     219,    5866,    5564,    5581,    5868,    5854,    5563,    5580,    5856
     220,    5865,    5866,    5868,    5867,    5853,    5854,    5856,    5855
     221,    5864,    5865,    5867,    5863,    5852,    5853,    5855,    5851
     222,    5525,    5474,    5564,    5866,    5524,    5473,    5563,    5854
     223,    5508,    5525,    5866,    5865,    5507,    5524,    5854,    5853
     224,    5491,    5508,    5865,    5864,    5490,    5507,    5853,    5852
     225,    5632,    5447,    5491,    5864,    5633,    5448,    5490,    5852
     226,    5649,    5632,    5864,    5863,    5650,    5633,    5852,    5851
     227,    5666,    5649,    5863,    5861,    5667,    5650,    5851,    5849
     228,    5683,    5666,    5861,    5862,    5684,    5667,    5849,    5850
     229,    5883,    5699,    5682,    5874,    5871,    5700,    5683,    5862
     230,    5884,    5716,    5699,    5883,    5872,    5717,    5700,    5871
     231,    5616,    5540,    5716,    5884,    5615,    5541,    5717,    5872
     232,    5882,    5599,    5616,    5884,    5870,    5598,    5615,    5872
     233,    5881,    5882,    5884,    5883,    5869,    5870,    5872,    5871
     234,    5873,    5881,    5883,    5874,    5861,    5869,    5871,    5862
     235,    5880,    5582,    5599,    5882,    5868,    5581,    5598,    5870
     236,    5879,    5880,    5882,    5881,    5867,    5868,    5870,    5869
     237,    5875,    5879,    5881,    5873,    5863,    5867,    5869,    5861
     238,    5878,    5565,    5582,    5880,    5866,    5564,    5581,    5868
     239,    5877,    5878,    5880,    5879,    5865,    5866,    5868,    5867
     240,    5876,    5877,    5879,    5875,    5864,    5865,    5867,    5863
     241,    5526,    5475,    5565,    5878,    5525,    5474,    5564,    5866
     242,    5509,    5526,    5878,    5877,    5508,    5525,    5866,    5865
     243,    5492,    5509,    5877,    5876,    5491,    5508,    5865,    5864
     244,    5631,    5446,    5492,    5876,    5632,    5447,    5491,    5864
     245,    5648,    5631,    5876,    5875,    5649,    5632,    5864,    5863
     246,    5665,    5648,    5875,    5873,    5666,    5649,    5863,    5861
     247,    5682,    5665,    5873,    5874,    5683,    5666,    5861,    5862
     248,    5895,    5698,    5681,    5886,    5883,    5699,    5682,    5874
     249,    5896,    5715,    5698,    5895,    5884,    5716,    5699,    5883
     250,    5617,    5539,    5715,    5896,    5616,    5540,    5716,    5884
     251,    5894,    5600,    5617,    5896,    5882,    5599,    5616,    5884
     252,    5893,    5894,    5896,    5895,    5881,    5882,    5884,    5883
     253,    5885,    5893,    5895,    5886,    5873,    5881,    5883,    5874
     254,    5892,    5583,    5600,    5894,    5880,    5582,    5599,    5882
     255,    5891,    5892,    5894,    5893,    5879,    5880,    5882,    5881
     256,    5887,    5891,    5893,    5885,    5875,    5879,    5881,    5873
     257,    5890,    5566,    5583,    5892,    5878,    5565,    5582,    5880
     258,    5889,    5890,    5892,    5891,    5877,    5878,    5880,    5879
     259,    5888,    5889,    5891,    5887,    5876,    5877,    5879,    5875
     260,    5527,    5476,    5566,    5890,    5526,    5475,    5565,    5878
     261,    5510,    5527,    5890,    5889,    5509,    5526,    5878,    5877
     262,    5493,    5510,    5889,    5888,    5492,    5509,    5877,    5876
     263,    5630,    5445,    5493,    5888,    5631,    5446,    5492,    5876
     264,    5647,    5630,    5888,    5887,    5648,    5631,    5876,    5875
     265,    5664,    5647,    5887,    5885,    5665,    5648,    5875,    5873
     266,    5681,    5664,    5885,    5886,    5682,    5665,    5873,    5874
     267,    5907,    5697,    5680,    5898,    5895,    5698,    5681,    5886
     268,    5908,    5714,    5697,    5907,    5896,    5715,    5698,    5895
     269,    5618,    5538,    5714,    5908,    5617,    5539,    5715,    5896
     270,    5906,    5601,    5618,    5908,    5894,    5600,    5617,    5896
     271,    5905,    5906,    5908,    5907,    5893,    5894,    5896,    5895
     272,    5897,    5905,    5907,    5898,    5885,    5893,    5895,    5886
     273,    5904,    5584,    5601,    5906,    5892,    5583,    5600,    5894
     274,    5903,    5904,    5906,    5905,    5891,    5892,    5894,    5893
     275,    5899,    5903,    5905,    5897,    5887,    5891,    5893,    5885
     276,    5902,    5567,    5584,    5904,    5890,    5566,    5583,    5892
     277,    5901,    5902,    5904,    5903,    5889,    5890,    5892,    5891
     278,    5900,    5901,    5903,    5899,    5888,    5889,    5891,    5887
     279,    5528,    5477,    5567,    5902,    5527,    5476,    5566,    5890
     280,    5511,    5528,    5902,    5901,    5510,    5527,    5890,    5889
     281,    5494,    5511,    5901,    5900,    5493,    5510,    5889,    5888
     282,    5629,    5444,    5494,    5900,    5630,    5445,    5493,    5888
     283,    5646,    5629,    5900,    5899,    5647,    5630,    5888,    5887
     284,    5663,    5646,    5899,    5897,    5664,    5647,    5887,    5885
     285,    5680,    5663,    5897,    5898,    5681,    5664,    5885,    5886
     286,    5919,    5696,    5679,    5910,    5907,    5697,    5680,    5898
     287,    5920,    5713,    5696,    5919,    5908,    5714,    5697,    5907
     288,    5619,    5537,    5713,    5920,    5618,    5538,    5714,    5908
     289,    5918,    5602,    5619,    5920,    5906,    5601,    5618,    5908
     290,    5917,    5918,    5920,    5919,    5905,    5906,    5908,    5907
     291,    5909,    5917,    5919,    5910,    5897,    5905,    5907,    5898
     292,    5916,    5585,    5602,    5918,    5904,    5584,    5601,    5906
     293,    5915,    5916,    5918,    5917,    5903,    5904,    5906,    5905
     294,    5911,    5915,    5917,    5909,    5899,    5903,    5905,    5897
     295,    5914,    5568,    5585,    5916,    5902,    5567,    5584,    5904
     296,    5913,    5914,    5916,    5915,    5901,    5902,    5904,    5903
     297,    5912,    5913,    5915,    5911,    5900,    5901,    5903,    5899
     298,    5529,    5478,    5568,    5914,    5528,    5477,    5567,    5902
     299,    5512,    5529,    5914,    5913,    5511,    5528,    5902,    5901
     300,    5495,    5512,    5913,    5912,    5494,    5511,    5901,    5900
     301,    5628,    5443,    5495,    5912,    5629,    5444,    5494,    5900
     302,    5645,    5628,    5912,    5911,    5646,    5629,    5900,    5899
     303,    5662,    5645,    5911,    5909,    5663,    5646,    5899,    5897
     304,    5679,    5662,    5909,    5910,    5680,    5663,    5897,    5898
     305,    5931,    5695,    5678,    5922,    5919,    5696,    5679,    5910
     306,    5932,    5712,    5695,    5931,    5920,    5713,    5696,    5919
     307,    5620,    5536,    5712,    5932,    5619,    5537,    5713,    5920
     308,    5930,    5603,    5620,    5932,    5918,    5602,    5619,    5920
     309,    5929,    5930,    5932,    5931,    5917,    5918,    5920,    5919
     310,    5921,    5929,    5931,    5922,    5909,    5917,    5919,    5910
     311,    5928,    5586,    5603,    5930,    5916,    5585,    5602,    5918
     312,    5927,    5928,    5930,    5929,    5915,    5916,    5918,    5917
     313,    5923,    5927,    5929,    5921,    5911,    5915,    5917,    5909
     314,    5926,    5569,    5586,    5928,    5914,    5568,    5585,    5916
     315,    5925,    5926,    5928,    5927,    5913,    5914,    5916,    5915
     316,    5924,    5925,    5927,    5923,    5912,    5913,    5915,    5911
     317,    5530,    5479,    5569,    5926,    5529,    5478,    5568,    5914
     318,    5513,    5530,    5926,    5925,    5512,    5529,    5914,    5913
     319,    5496,    5513,    5925,    5924,    5495,    5512,    5913,    5912
     320,    5627,    5442,    5496,    5924,    5628,    5443,    5495,    5912
     321,    5644,    5627,    5924,    5923,    5645,    5628,    5912,    5911
     322,    5661,    5644,    5923,    5921,    5662,    5645,    5911,    5909
     323,    5678,    5661,    5921,    5922,    5679,    5662,    5909,    5910
     324,    5943,    5625,    5624,    5934,    5931,    5695,    5678,    5922
     325,    5944,    5626,    5625,    5943,    5932,    5712,    5695,    5931
     326,    5535,    5531,    5626,    5944,    5620,    5536,    5712,    5932
     327,    5942,    5534,    5535,    5944,    5930,    5603,    5620,    5932
     328,    5941,    5942,    5944,    5943,    5929,    5930,    5932,    5931
     329,    5933,    5941,    5943,    5934,    5921,    5929,    5931,    5922
     330,    5940,    5533,    5534,    5942,    5928,    5586,    5603,    5930
     331,    5939,    5940,    5942,    5941,    5927,    5928,    5930,    5929
     332,    5935,    5939,    5941,    5933,    5923,    5927,    5929,    5921
     333,    5938,    5532,    5533,    5940,    5926,    5569,    5586,    5928
     334,    5937,    5938,    5940,    5939,    5925,    5926,    5928,    5927
     335,    5936,    5937,    5939,    5935,    5924,    5925,    5927,    5923
     336,    5460,    5459,    5532,    5938,    5530,    5479,    5569,    5926
     337,    5461,    5460,    5938,    5937,    5513,    5530,    5926,    5925
     338,    5462,    5461,    5937,    5936,    5496,    5513,    5925,    5924
     339,    5621,    5441,    5462,    5936,    5627,    5442,    5496,    5924
     340,    5622,    5621,    5936,    5935,    5644,    5627,    5924,    5923
     341,    5623,    5622,    5935,    5933,    5661,    5644,    5923,    5921
     342,    5624,    5623,    5933,    5934,    5678,    5661,    5921,    5922
     343,    5372,    5368,    5386,    5382,    5106,    5105,    5289,    5290
     344,    5368,    5364,    5389,    5386,    5105,    5104,    5291,    5289
     345,    5364,    5360,    5392,    5389,    5104,    5103,    5292,    5291
     346,    5360,    5305,    5314,    5392,    5103,    4993,    5005,    5292
     347,    5314,    5318,    5391,    5392,    5005,    5006,    5293,    5292
     348,    5318,    5322,    5390,    5391,    5006,    5007,    5294,    5293
     349,    5322,    5310,    5335,    5390,    5007,    5004,    5052,    5294
     350,    5392,    5391,    5388,    5389,    5292,    5293,    5295,    5291
     351,    5391,    5390,    5387,    5388,    5293,    5294,    5296,    5295
     352,    5390,    5335,    5339,    5387,    5294,    5052,    5051,    5296
     353,    5389,    5388,    5385,    5386,    5291,    5295,    5297,    5289
     354,    5388,    5387,    5384,    5385,    5295,    5296,    5298,    5297
     355,    5387,    5339,    5343,    5384,    5296,    5051,    5050,    5298
     356,    5386,    5385,    5381,    5382,    5289,    5297,    5299,    5290
     357,    5385,    5384,    5383,    5381,    5297,    5298,    5300,    5299
     358,    5384,    5343,    5347,    5383,    5298,    5050,    5049,    5300
     359,    5347,    5334,    5380,    5383,    5049,    5048,    5108,    5300
     360,    5383,    5380,    5376,    5381,    5300,    5108,    5107,    5299
     361,    5381,    5376,    5372,    5382,    5299,    5107,    5106,    5290
     362,    5371,    5367,    5398,    5394,    5372,    5368,    5386,    5382
     363,    5367,    5363,    5401,    5398,    5368,    5364,    5389,    5386
     364,    5363,    5359,    5404,    5401,    5364,    5360,    5392,    5389
     365,    5359,    5304,    5315,    5404,    5360,    5305,    5314,    5392
     366,    5315,    5319,    5403,    5404,    5314,    5318,    5391,    5392
     367,    5319,    5323,    5402,    5403,    5318,    5322,    5390,    5391
     368,    5323,    5311,    5336,    5402,    5322,    5310,    5335,    5390
     369,    5404,    5403,    5400,    5401,    5392,    5391,    5388,    5389
     370,    5403,    5402,    5399,    5400,    5391,    5390,    5387,    5388
     371,    5402,    5336,    5340,    5399,    5390,    5335,    5339,    5387
     372,    5401,    5400,    5397,    5398,    5389,    5388,    5385,    5386
     373,    5400,    5399,    5396,    5397,    5388,    5387,    5384,    5385
     374,    5399,    5340,    5344,    5396,    5387,    5339,    5343,    5384
     375,    5398,    5397,    5393,    5394,    5386,    5385,    5381,    5382
     376,    5397,    5396,    5395,    5393,    5385,    5384,    5383,    5381
     377,    5396,    5344,    5348,    5395,    5384,    5343,    5347,    5383
     378,    5348,    5333,    5379,    5395,    5347,    5334,    5380,    5383
     379,    5395,    5379,    5375,    5393,    5383,    5380,    5376,    5381
     380,    5393,    5375,    5371,    5394,    5381,    5376,    5372,    5382
     381,    5370,    5366,    5410,    5406,    5371,    5367,    5398,    5394
     382,    5366,    5362,    5413,    5410,    5367,    5363,    5401,    5398
     383,    5362,    5358,    5416,    5413,    5363,    5359,    5404,    5401
     384,    5358,    5303,    5316,    5416,    5359,    5304,    5315,    5404
     385,    5316,    5320,    5415,    5416,    5315,    5319,    5403,    5404
     386,    5320,    5324,    5414,    5415,    5319,    5323,    5402,    5403
     387,    5324,    5312,    5337,    5414,    5323,    5311,    5336,    5402
     388,    5416,    5415,    5412,    5413,    5404,    5403,    5400,    5401
     389,    5415,    5414,    5411,    5412,    5403,    5402,    5399,    5400
     390,    5414,    5337,    5341,    5411,    5402,    5336,    5340,    5399
     391,    5413,    5412,    5409,    5410,    5401,    5400,    5397,    5398
     392,    5412,    5411,    5408,    5409,    5400,    5399,    5396,    5397
     393,    5411,    5341,    5345,    5408,    5399,    5340,    5344,    5396
     394,    5410,    5409,    5405,    5406,    5398,    5397,    5393,    5394
     395,    5409,    5408,    5407,    5405,    5397,    5396,    5395,    5393
     396,    5408,    5345,    5349,    5407,    5396,    5344,    5348,    5395
     397,    5349,    5332,    5378,    5407,    5348,    5333,    5379,    5395
     398,    5407,    5378,    5374,    5405,    5395,    5379,    5375,    5393
     399,    5405,    5374,    5370,    5406,    5393,    5375,    5371,    5394
     400,    5369,    5365,    5422,    5418,    5370,    5366,    5410,    5406
     401,    5365,    5361,    5425,    5422,    5366,    5362,    5413,    5410
     402,    5361,    5357,    5428,    5425,    5362,    5358,    5416,    5413
     403,    5357,    5302,    5317,    5428,    5358,    5303,    5316,    5416
     404,    5317,    5321,    5427,    5428,    5316,    5320,    5415,    5416
     405,    5321,    5325,    5426,    5427,    5320,    5324,    5414,    5415
     406,    5325,    5313,    5338,    5426,    5324,    5312,    5337,    5414
     407,    5428,    5427,    5424,    5425,    5416,    5415,    5412,    5413
     408,    5427,    5426,    5423,    5424,    5415,    5414,    5411,    5412
     409,    5426,    5338,    5342,    5423,    5414,    5337,    5341,    5411
     410,    5425,    5424,    5421,    5422,    5413,    5412,    5409,    5410
     411,    5424,    5423,    5420,    5421,    5412,    5411,    5408,    5409
     412,    5423,    5342,    5346,    5420,    5411,    5341,    5345,    5408
     413,    5422,    5421,    5417,    5418,    5410,    5409,    5405,    5406
     414,    5421,    5420,    5419,    5417,    5409,    5408,    5407,    5405
     415,    5420,    5346,    5350,    5419,    5408,    5345,    5349,    5407
     416,    5350,    5331,    5377,    5419,    5349,    5332,    5378,    5407
     417,    5419,    5377,    5373,    5417,    5407,    5378,    5374,    5405
     418,    5417,    5373,    5369,    5418,    5405,    5374,    5370,    5406
     419,    5354,    5353,    5434,    5430,    5369,    5365,    5422,    5418
     420,    5353,    5352,    5437,    5434,    5365,    5361,    5425,    5422
     421,    5352,    5351,    5440,    5437,    5361,    5357,    5428,    5425
     422,    5351,    5301,    5307,    5440,    5357,    5302,    5317,    5428
     423,    5307,    5308,    5439,    5440,    5317,    5321,    5427,    5428
     424,    5308,    5309,    5438,    5439,    5321,    5325,    5426,    5427
     425,    5309,    5306,    5330,    5438,    5325,    5313,    5338,    5426
     426,    5440,    5439,    5436,    5437,    5428,    5427,    5424,    5425
     427,    5439,    5438,    5435,    5436,    5427,    5426,    5423,    5424
     428,    5438,    5330,    5329,    5435,    5426,    5338,    5342,    5423
     429,    5437,    5436,    5433,    5434,    5425,    5424,    5421,    5422
     430,    5436,    5435,    5432,    5433,    5424,    5423,    5420,    5421
     431,    5435,    5329,    5328,    5432,    5423,    5342,    5346,    5420
     432,    5434,    5433,    5429,    5430,    5422,    5421,    5417,    5418
     433,    5433,    5432,    5431,    5429,    5421,    5420,    5419,    5417
     434,    5432,    5328,    5327,    5431,    5420,    5346,    5350,    5419
     435,    5327,    5326,    5356,    5431,    5350,    5331,    5377,    5419
     436,    5431,    5356,    5355,    5429,    5419,    5377,    5373,    5417
     437,    5429,    5355,    5354,    5430,    5417,    5373,    5369,    5418
     438,    5179,    5158,    5148,    5170,    4510,    4503,    4502,    4505
     439,    5180,    5168,    5158,    5179,    4509,    4504,    4503,    4510
     440,    5093,    5062,    5168,    5180,    4495,    4494,    4504,    4509
     441,    5178,    5083,    5093,    5180,    4516,    4496,    4495,    4509
     442,    5177,    5178,    5180,    5179,    4515,    4516,    4509,    4510
     443,    5169,    5177,    5179,    5170,    4508,    4515,    4510,    4505
     444,    5176,    5073,    5083,    5178,    4514,    4497,    4496,    4516
     445,    5175,    5176,    5178,    5177,    4513,    4514,    4516,    4515
     446,    5171,    5175,    5177,    5169,    4507,    4513,    4515,    4508
     447,    5174,    5063,    5073,    5176,    4512,    4498,    4497,    4514
     448,    5173,    5174,    5176,    5175,    4511,    4512,    4514,    4513
     449,    5172,    5173,    5175,    5171,    4506,    4511,    4513,    4507
     450,    5038,    5008,    5063,    5174,    4493,    4490,    4498,    4512
     451,    5028,    5038,    5174,    5173,    4492,    4493,    4512,    4511
     452,    5018,    5028,    5173,    5172,    4491,    4492,    4511,    4506
     453,    5118,    5003,    5018,    5172,    4499,    4489,    4491,    4506
     454,    5128,    5118,    5172,    5171,    4500,    4499,    4506,    4507
     455,    5138,    5128,    5171,    5169,    4501,    4500,    4507,    4508
     456,    5148,    5138,    5169,    5170,    4502,    4501,    4508,    4505
     457,    5191,    5157,    5147,    5182,    5179,    5158,    5148,    5170
     458,    5192,    5167,    5157,    5191,    5180,    5168,    5158,    5179
     459,    5094,    5061,    5167,    5192,    5093,    5062,    5168,    5180
     460,    5190,    5084,    5094,    5192,    5178,    5083,    5093,    5180
     461,    5189,    5190,    5192,    5191,    5177,    5178,    5180,    5179
     462,    5181,    5189,    5191,    5182,    5169,    5177,    5179,    5170
     463,    5188,    5074,    5084,    5190,    5176,    5073,    5083,    5178
     464,    5187,    5188,    5190,    5189,    5175,    5176,    5178,    5177
     465,    5183,    5187,    5189,    5181,    5171,    5175,    5177,    5169
     466,    5186,    5064,    5074,    5188,    5174,    5063,    5073,    5176
     467,    5185,    5186,    5188,    5187,    5173,    5174,    5176,    5175
     468,    5184,    5185,    5187,    5183,    5172,    5173,    5175,    5171
     469,    5039,    5009,    5064,    5186,    5038,    5008,    5063,    5174
     470,    5029,    5039,    5186,    5185,    5028,    5038,    5174,    5173
     471,    5019,    5029,    5185,    5184,    5018,    5028,    5173,    5172
     472,    5117,    5002,    5019,    5184,    5118,    5003,    5018,    5172
     473,    5127,    5117,    5184,    5183,    5128,    5118,    5172,    5171
     474,    5137,    5127,    5183,    5181,    5138,    5128,    5171,    5169
     475,    5147,    5137,    5181,    5182,    5148,    5138,    5169,    5170
     476,    5203,    5156,    5146,    5194,    5191,    5157,    5147,    5182
     477,    5204,    5166,    5156,    5203,    5192,    5167,    5157,    5191
     478,    5095,    5060,    5166,    5204,    5094,    5061,    5167,    5192
     479,    5202,    5085,    5095,    5204,    5190,    5084,    5094,    5192
     480,    5201,    5202,    5204,    5203,    5189,    5190,    5192,    5191
     481,    5193,    5201,    5203,    5194,    5181,    5189,    5191,    5182
     482,    5200,    5075,    5085,    5202,    5188,    5074,    5084,    5190
     483,    5199,    5200,    5202,    5201,    5187,    5188,    5190,    5189
     484,    5195,    5199,    5201,    5193,    5183,    5187,    5189,    5181
     485,    5198,    5065,    5075,    5200,    5186,    5064,    5074,    5188
     486,    5197,    5198,    5200,    5199,    5185,    5186,    5188,    5187
     487,    5196,    5197,    5199,    5195,    5184,    5185,    5187,    5183
     488,    5040,    5010,    5065,    5198,    5039,    5009,    5064,    5186
     489,    5030,    5040,    5198,    5197,    5029,    5039,    5186,    5185
     490,    5020,    5030,    5197,    5196,    5019,    5029,    5185,    5184
     491,    5116,    5001,    5020,    5196,    5117,    5002,    5019,    5184
     492,    5126,    5116,    5196,    5195,    5127,    5117,    5184,    5183
     493,    5136,    5126,    5195,    5193,    5137,    5127,    5183,    5181
     494,    5146,    5136,    5193,    5194,    5147,    5137,    5181,    5182
     495,    5215,    5155,    5145,    5206,    5203,    5156,    5146,    5194
     496,    5216,    5165,    5155,    5215,    5204,    5166,    5156,    5203
     497,    5096,    5059,    5165,    5216,    5095,    5060,    5166,    5204
     498,    5214,    5086,    5096,    5216,    5202,    5085,    5095,    5204
     499,    5213,    5214,    5216,    5215,    5201,    5202,    5204,    5203
     500,    5205,    5213,    5215,    5206,    5193,    5201,    5203,    5194
     501,    5212,    5076,    5086,    5214,    5200,    5075,    5085,    5202
     502,    5211,    5212,    5214,    5213,    5199,    5200,    5202,    5201
     503,    5207,    5211,    5213,    5205,    5195,    5199,    5201,    5193
     504,    5210,    5066,    5076,    5212,    5198,    5065,    5075,    5200
     505,    5209,    5210,    5212,    5211,    5197,    5198,    5200,    5199
     506,    5208,    5209,    5211,    5207,    5196,    5197,    5199,    5195
     507,    5041,    5011,    5066,    5210,    5040,    5010,    5065,    5198
     508,    5031,    5041,    5210,    5209,    5030,    5040,    5198,    5197
     509,    5021,    5031,    5209,    5208,    5020,    5030,    5197,    5196
     510,    5115,    5000,    5021,    5208,    5116,    5001,    5020,    5196
     511,    5125,    5115,    5208,    5207,    5126,    5116,    5196,    5195
     512,    5135,    5125,    5207,    5205,    5136,    5126,    5195,    5193
     513,    5145,    5135,    5205,    5206,    5146,    5136,    5193,    5194
     514,    5227,    5154,    5144,    5218,    5215,    5155,    5145,    5206
     515,    5228,    5164,    5154,    5227,    5216,    5165,    5155,    5215
     516,    5097,    5058,    5164,    5228,    5096,    5059,    5165,    5216
     517,    5226,    5087,    5097,    5228,    5214,    5086,    5096,    5216
     518,    5225,    5226,    5228,    5227,    5213,    5214,    5216,    5215
     519,    5217,    5225,    5227,    5218,    5205,    5213,    5215,    5206
     520,    5224,    5077,    5087,    5226,    5212,    5076,    5086,    5214
     521,    5223,    5224,    5226,    5225,    5211,    5212,    5214,    5213
     522,    5219,    5223,    5225,    5217,    5207,    5211,    5213,    5205
     523,    5222,    5067,    5077,    5224,    5210,    5066,    5076,    5212
     524,    5221,    5222,    5224,    5223,    5209,    5210,    5212,    5211
     525,    5220,    5221,    5223,    5219,    5208,    5209,    5211,    5207
     526,    5042,    5012,    5067,    5222,    5041,    5011,    5066,    5210
     527,    5032,    5042,    5222,    5221,    5031,    5041,    5210,    5209
     528,    5022,    5032,    5221,    5220,    5021,    5031,    5209,    5208
     529,    5114,    4999,    5022,    5220,    5115,    5000,    5021,    5208
     530,    5124,    5114,    5220,    5219,    5125,    5115,    5208,    5207
     531,    5134,    5124,    5219,    5217,    5135,    5125,    5207,    5205
     532,    5144,    5134,    5217,    5218,    5145,    5135,    5205,    5206
     533,    5239,    5153,    5143,    5230,    5227,    5154,    5144,    5218
     534,    5240,    5163,    5153,    5239,    5228,    5164,    5154,    5227
     535,    5098,    5057,    5163,    5240,    5097,    5058,    5164,    5228
     536,    5238,    5088,    5098,    5240,    5226,    5087,    5097,    5228
     537,    5237,    5238,    5240,    5239,    5225,    5226,    5228,    5227
     538,    5229,    5237,    5239,    5230,    5217,    5225,    5227,    5218
     539,    5236,    5078,    5088,    5238,    5224,    5077,    5087,    5226
     540,    5235,    5236,    5238,    5237,    5223,    5224,    5226,    5225
     541,    5231,    5235,    5237,    5229,    5219,    5223,    5225,    5217
     542,    5234,    5068,    5078,    5236,    5222,    5067,    5077,    5224
     543,    5233,    5234,    5236,    5235,    5221,    5222,    5224,    5223
     544,    5232,    5233,    5235,    5231,    5220,    5221,    5223,    5219
     545,    5043,    5013,    5068,    5234,    5042,    5012,    5067,    5222
     546,    5033,    5043,    5234,    5233,    5032,    5042,    5222,    5221
     547,    5023,    5033,    5233,    5232,    5022,    5032,    5221,    5220
     548,    5113,    4998,    5023,    5232,    5114,    4999,    5022,    5220
     549,    5123,    5113,    5232,    5231,    5124,    5114,    5220,    5219
     550,    5133,    5123,    5231,    5229,    5134,    5124,    5219,    5217
     551,    5143,    5133,    5229,    5230,    5144,    5134,    5217,    5218
     552,    5251,    5152,    5142,    5242,    5239,    5153,    5143,    5230
     553,    5252,    5162,    5152,    5251,    5240,    5163,    5153,    5239
     554,    5099,    5056,    5162,    5252,    5098,    5057,    5163,    5240
     555,    5250,    5089,    5099,    5252,    5238,    5088,    5098,    5240
     556,    5249,    5250,    5252,    5251,    5237,    5238,    5240,    5239
     557,    5241,    5249,    5251,    5242,    5229,    5237,    5239,    5230
     558,    5248,    5079,    5089,    5250,    5236,    5078,    5088,    5238
     559,    5247,    5248,    5250,    5249,    5235,    5236,    5238,    5237
     560,    5243,    5247,    5249,    5241,    5231,    5235,    5237,    5229
     561,    5246,    5069,    5079,    5248,    5234,    5068,    5078,    5236
     562,    5245,    5246,    5248,    5247,    5233,    5234,    5236,    5235
     563,    5244,    5245,    5247,    5243,    5232,    5233,    5235,    5231
     564,    5044,    5014,    5069,    5246,    5043,    5013,    5068,    5234
     565,    5034,    5044,    5246,    5245,    5033,    5043,    5234,    5233
     566,    5024,    5034,    5245,    5244,    5023,    5033,    5233,    5232
     567,    5112,    4997,    5024,    5244,    5113,    4998,    5023,    5232
     568,    5122,    5112,    5244,    5243,    5123,    5113,    5232,    5231
     569,    5132,    5122,    5243,    5241,    5133,    5123,    5231,    5229
     570,    5142,    5132,    5241,    5242,    5143,    5133,    5229,    5230
     571,    5263,    5151,    5141,    5254,    5251,    5152,    5142,    5242
     572,    5264,    5161,    5151,    5263,    5252,    5162,    5152,    5251
     573,    5100,    5055,    5161,    5264,    5099,    5056,    5162,    5252
     574,    5262,    5090,    5100,    5264,    5250,    5089,    5099,    5252
     575,    5261,    5262,    5264,    5263,    5249,    5250,    5252,    5251
     576,    5253,    5261,    5263,    5254,    5241,    5249,    5251,    5242
     577,    5260,    5080,    5090,    5262,    5248,    5079,    5089,    5250
     578,    5259,    5260,    5262,    5261,    5247,    5248,    5250,    5249
     579,    5255,    5259,    5261,    5253,    5243,    5247,    5249,    5241
     580,    5258,    5070,    5080,    5260,    5246,    5069,    5079,    5248
     581,    5257,    5258,    5260,    5259,    5245,    5246,    5248,    5247
     582,    5256,    5257,    5259,    5255,    5244,    5245,    5247,    5243
     583,    5045,    5015,    5070,    5258,    5044,    5014,    5069,    5246
     584,    5035,    5045,    5258,    5257,    5034,    5044,    5246,    5245
     585,    5025,    5035,    5257,    5256,    5024,    5034,    5245,    5244
     586,    5111,    4996,    5025,    5256,    5112,    4997,    5024,    5244
     587,    5121,    5111,    5256,    5255,    5122,    5112,    5244,    5243
     588,    5131,    5121,    5255,    5253,    5132,    5122,    5243,    5241
     589,    5141,    5131,    5253,    5254,    5142,    5132,    5241,    5242
     590,    5275,    5150,    5140,    5266,    5263,    5151,    5141,    5254
     591,    5276,    5160,    5150,    5275,    5264,    5161,    5151,    5263
     592,    5101,    5054,    5160,    5276,    5100,    5055,    5161,    5264
     593,    5274,    5091,    5101,    5276,    5262,    5090,    5100,    5264
     594,    5273,    5274,    5276,    5275,    5261,    5262,    5264,    5263
     595,    5265,    5273,    5275,    5266,    5253,    5261,    5263,    5254
     596,    5272,    5081,    5091,    5274,    5260,    5080,    5090,    5262
     597,    5271,    5272,    5274,    5273,    5259,    5260,    5262,    5261
     598,    5267,    5271,    5273,    5265,    5255,    5259,    5261,    5253
     599,    5270,    5071,    5081,    5272,    5258,    5070,    5080,    5260
     600,    5269,    5270,    5272,    5271,    5257,    5258,    5260,    5259
     601,    5268,    5269,    5271,    5267,    5256,    5257,    5259,    5255
     602,    5046,    5016,    5071,    5270,    5045,    5015,    5070,    5258
     603,    5036,    5046,    5270,    5269,    5035,    5045,    5258,    5257
     604,    5026,    5036,    5269,    5268,    5025,    5035,    5257,    5256
     605,    5110,    4995,    5026,    5268,    5111,    4996,    5025,    5256
     606,    5120,    5110,    5268,    5267,    5121,    5111,    5256,    5255
     607,    5130,    5120,    5267,    5265,    5131,    5121,    5255,    5253
     608,    5140,    5130,    5265,    5266,    5141,    5131,    5253,    5254
     609,    5287,    5149,    5139,    5278,    5275,    5150,    5140,    5266
     610,    5288,    5159,    5149,    5287,    5276,    5160,    5150,    5275
     611,    5102,    5053,    5159,    5288,    5101,    5054,    5160,    5276
     612,    5286,    5092,    5102,    5288,    5274,    5091,    5101,    5276
     613,    5285,    5286,    5288,    5287,    5273,    5274,    5276,    5275
     614,    5277,    5285,    5287,    5278,    5265,    5273,    5275,    5266
     615,    5284,    5082,    5092,    5286,    5272,    5081,    5091,    5274
     616,    5283,    5284,    5286,    5285,    5271,    5272,    5274,    5273
     617,    5279,    5283,    5285,    5277,    5267,    5271,    5273,    5265
     618,    5282,    5072,    5082,    5284,    5270,    5071,    5081,    5272
     619,    5281,    5282,    5284,    5283,    5269,    5270,    5272,    5271
     620,    5280,    5281,    5283,    5279,    5268,    5269,    5271,    5267
     621,    5047,    5017,    5072,    5282,    5046,    5016,    5071,    5270
     622,    5037,    5047,    5282,    5281,    5036,    5046,    5270,    5269
     623,    5027,    5037,    5281,    5280,    5026,    5036,    5269,    5268
     624,    5109,    4994,    5027,    5280,    5110,    4995,    5026,    5268
     625,    5119,    5109,    5280,    5279,    5120,    5110,    5268,    5267
     626,    5129,    5119,    5279,    5277,    5130,    5120,    5267,    5265
     627,    5139,    5129,    5277,    5278,    5140,    5130,    5265,    5266
     628,    5299,    5107,    5106,    5290,    5287,    5149,    5139,    5278
     629,    5300,    5108,    5107,    5299,    5288,    5159,    5149,    5287
     630,    5049,    5048,    5108,    5300,    5102,    5053,    5159,    5288
     631,    5298,    5050,    5049,    5300,    5286,    5092,    5102,    5288
     632,    5297,    5298,    5300,    5299,    5285,    5286,    5288,    5287
     633,    5289,    5297,    5299,    5290,    5277,    5285,    5287,    5278
     634,    5296,    5051,    5050,    5298,    5284,    5082,    5092,    5286
     635,    5295,    5296,    5298,    5297,    5283,    5284,    5286,    5285
     636,    5291,    5295,    5297,    5289,    5279,    5283,    5285,    5277
     637,    5294,    5052,    5051,    5296,    5282,    5072,    5082,    5284
     638,    5293,    5294,    5296,    5295,    5281,    5282,    5284,    5283
     639,    5292,    5293,    5295,    5291,    5280,    5281,    5283,    5279
     640,    5007,    5004,    5052,    5294,    5047,    5017,    5072,    5282
     641,    5006,    5007,    5294,    5293,    5037,    5047,    5282,    5281
     642,    5005,    5006,    5293,    5292,    5027,    5037,    5281,    5280
     643,    5103,    4993,    5005,    5292,    5109,    4994,    5027,    5280
     644,    5104,    5103,    5292,    5291,    5119,    5109,    5280,    5279
     645,    5105,    5104,    5291,    5289,    5129,    5119,    5279,    5277
     646,    5106,    5105,    5289,    5290,    5139,    5129,    5277,    5278
     647,    4510,    4503,    4502,    4505,    4799,    4757,    4741,    4789
     648,    4509,    4504,    4503,    4510,    4800,    4773,    4757,    4799
     649,    4495,    4494,    4504,    4509,    4686,    4603,    4773,    4800
     650,    4516,    4496,    4495,    4509,    4798,    4670,    4686,    4800
     651,    4515,    4516,    4509,    4510,    4797,    4798,    4800,    4799
     652,    4508,    4515,    4510,    4505,    4790,    4797,    4799,    4789
     653,    4514,    4497,    4496,    4516,    4796,    4654,    4670,    4798
     654,    4513,    4514,    4516,    4515,    4795,    4796,    4798,    4797
     655,    4507,    4513,    4515,    4508,    4791,    4795,    4797,    4790
     656,    4512,    4498,    4497,    4514,    4794,    4638,    4654,    4796
     657,    4511,    4512,    4514,    4513,    4793,    4794,    4796,    4795
     658,    4506,    4511,    4513,    4507,    4792,    4793,    4795,    4791
     659,    4493,    4490,    4498,    4512,    4601,    4550,    4638,    4794
     660,    4492,    4493,    4512,    4511,    4585,    4601,    4794,    4793
     661,    4491,    4492,    4511,    4506,    4569,    4585,    4793,    4792
     662,    4499,    4489,    4491,    4506,    4693,    4518,    4569,    4792
     663,    4500,    4499,    4506,    4507,    4709,    4693,    4792,    4791
     664,    4501,    4500,    4507,    4508,    4725,    4709,    4791,    4790
     665,    4502,    4501,    4508,    4505,    4741,    4725,    4790,    4789
     666,    4799,    4757,    4741,    4789,    4811,    4758,    4742,    4801
     667,    4800,    4773,    4757,    4799,    4812,    4774,    4758,    4811
     668,    4686,    4603,    4773,    4800,    4685,    4604,    4774,    4812
     669,    4798,    4670,    4686,    4800,    4810,    4669,    4685,    4812
     670,    4797,    4798,    4800,    4799,    4809,    4810,    4812,    4811
     671,    4790,    4797,    4799,    4789,    4802,    4809,    4811,    4801
     672,    4796,    4654,    4670,    4798,    4808,    4653,    4669,    4810
     673,    4795,    4796,    4798,    4797,    4807,    4808,    4810,    4809
     674,    4791,    4795,    4797,    4790,    4803,    4807,    4809,    4802
     675,    4794,    4638,    4654,    4796,    4806,    4637,    4653,    4808
     676,    4793,    4794,    4796,    4795,    4805,    4806,    4808,    4807
     677,    4792,    4793,    4795,    4791,    4804,    4805,    4807,    4803
     678,    4601,    4550,    4638,    4794,    4600,    4549,    4637,    4806
     679,    4585,    4601,    4794,    4793,    4584,    4600,    4806,    4805
     680,    4569,    4585,    4793,    4792,    4568,    4584,    4805,    4804
     681,    4693,    4518,    4569,    4792,    4694,    4519,    4568,    4804
     682,    4709,    4693,    4792,    4791,    4710,    4694,    4804,    4803
     683,    4725,    4709,    4791,    4790,    4726,    4710,    4803,    4802
     684,    4741,    4725,    4790,    4789,    4742,    4726,    4802,    4801
     685,    4811,    4758,    4742,    4801,    4823,    4759,    4743,    4813
     686,    4812,    4774,    4758,    4811,    4824,    4775,    4759,    4823
     687,    4685,    4604,    4774,    4812,    4684,    4605,    4775,    4824
     688,    4810,    4669,    4685,    4812,    4822,    4668,    4684,    4824
     689,    4809,    4810,    4812,    4811,    4821,    4822,    4824,    4823
     690,    4802,    4809,    4811,    4801,    4814,    4821,    4823,    4813
     691,    4808,    4653,    4669,    4810,    4820,    4652,    4668,    4822
     692,    4807,    4808,    4810,    4809,    4819,    4820,    4822,    4821
     693,    4803,    4807,    4809,    4802,    4815,    4819,    4821,    4814
     694,    4806,    4637,    4653,    4808,    4818,    4636,    4652,    4820
     695,    4805,    4806,    4808,    4807,    4817,    4818,    4820,    4819
     696,    4804,    4805,    4807,    4803,    4816,    4817,    4819,    4815
     697,    4600,    4549,    4637,    4806,    4599,    4548,    4636,    4818
     698,    4584,    4600,    4806,    4805,    4583,    4599,    4818,    4817
     699,    4568,    4584,    4805,    4804,    4567,    4583,    4817,    4816
     700,    4694,    4519,    4568,    4804,    4695,    4520,    4567,    4816
     701,    4710,    4694,    4804,    4803,    4711,    4695,    4816,    4815
     702,    4726,    4710,    4803,    4802,    4727,    4711,    4815,    4814
     703,    4742,    4726,    4802,    4801,    4743,    4727,    4814,    4813
     704,    4823,    4759,    4743,    4813,    4835,    4760,    4744,    4825
     705,    4824,    4775,    4759,    4823,    4836,    4776,    4760,    4835
     706,    4684,    4605,    4775,    4824,    4683,    4606,    4776,    4836
     707,    4822,    4668,    4684,    4824,    4834,    4667,    4683,    4836
     708,    4821,    4822,    4824,    4823,    4833,    4834,    4836,    4835
     709,    4814,    4821,    4823,    4813,    4826,    4833,    4835,    4825
     710,    4820,    4652,    4668,    4822,    4832,    4651,    4667,    4834
     711,    4819,    4820,    4822,    4821,    4831,    4832,    4834,    4833
     712,    4815,    4819,    4821,    4814,    4827,    4831,    4833,    4826
     713,    4818,    4636,    4652,    4820,    4830,    4635,    4651,    4832
     714,    4817,    4818,    4820,    4819,    4829,    4830,    4832,    4831
     715,    4816,    4817,    4819,    4815,    4828,    4829,    4831,    4827
     716,    4599,    4548,    4636,    4818,    4598,    4547,    4635,    4830
     717,    4583,    4599,    4818,    4817,    4582,    4598,    4830,    4829
     718,    4567,    4583,    4817,    4816,    4566,    4582,    4829,    4828
     719,    4695,    4520,    4567,    4816,    4696,    4521,    4566,    4828
     720,    4711,    4695,    4816,    4815,    4712,    4696,    4828,    4827
     721,    4727,    4711,    4815,    4814,    4728,    4712,    4827,    4826
     722,    4743,    4727,    4814,    4813,    4744,    4728,    4826,    4825
     723,    4835,    4760,    4744,    4825,    4847,    4761,    4745,    4837
     724,    4836,    4776,    4760,    4835,    4848,    4777,    4761,    4847
     725,    4683,    4606,    4776,    4836,    4682,    4607,    4777,    4848
     726,    4834,    4667,    4683,    4836,    4846,    4666,    4682,    4848
     727,    4833,    4834,    4836,    4835,    4845,    4846,    4848,    4847
     728,    4826,    4833,    4835,    4825,    4838,    4845,    4847,    4837
     729,    4832,    4651,    4667,    4834,    4844,    4650,    4666,    4846
     730,    4831,    4832,    4834,    4833,    4843,    4844,    4846,    4845
     731,    4827,    4831,    4833,    4826,    4839,    4843,    4845,    4838
     732,    4830,    4635,    4651,    4832,    4842,    4634,    4650,    4844
     733,    4829,    4830,    4832,    4831,    4841,    4842,    4844,    4843
     734,    4828,    4829,    4831,    4827,    4840,    4841,    4843,    4839
     735,    4598,    4547,    4635,    4830,    4597,    4546,    4634,    4842
     736,    4582,    4598,    4830,    4829,    4581,    4597,    4842,    4841
     737,    4566,    4582,    4829,    4828,    4565,    4581,    4841,    4840
     738,    4696,    4521,    4566,    4828,    4697,    4522,    4565,    4840
     739,    4712,    4696,    4828,    4827,    4713,    4697,    4840,    4839
     740,    4728,    4712,    4827,    4826,    4729,    4713,    4839,    4838
     741,    4744,    4728,    4826,    4825,    4745,    4729,    4838,    4837
     742,    4847,    4761,    4745,    4837,    4859,    4762,    4746,    4849
     743,    4848,    4777,    4761,    4847,    4860,    4778,    4762,    4859
     744,    4682,    4607,    4777,    4848,    4681,    4608,    4778,    4860
     745,    4846,    4666,    4682,    4848,    4858,    4665,    4681,    4860
     746,    4845,    4846,    4848,    4847,    4857,    4858,    4860,    4859
     747,    4838,    4845,    4847,    4837,    4850,    4857,    4859,    4849
     748,    4844,    4650,    4666,    4846,    4856,    4649,    4665,    4858
     749,    4843,    4844,    4846,    4845,    4855,    4856,    4858,    4857
     750,    4839,    4843,    4845,    4838,    4851,    4855,    4857,    4850
     751,    4842,    4634,    4650,    4844,    4854,    4633,    4649,    4856
     752,    4841,    4842,    4844,    4843,    4853,    4854,    4856,    4855
     753,    4840,    4841,    4843,    4839,    4852,    4853,    4855,    4851
     754,    4597,    4546,    4634,    4842,    4596,    4545,    4633,    4854
     755,    4581,    4597,    4842,    4841,    4580,    4596,    4854,    4853
     756,    4565,    4581,    4841,    4840,    4564,    4580,    4853,    4852
     757,    4697,    4522,    4565,    4840,    4698,    4523,    4564,    4852
     758,    4713,    4697,    4840,    4839,    4714,    4698,    4852,    4851
     759,    4729,    4713,    4839,    4838,    4730,    4714,    4851,    4850
     760,    4745,    4729,    4838,    4837,    4746,    4730,    4850,    4849
     761,    4859,    4762,    4746,    4849,    4871,    4763,    4747,    4861
     762,    4860,    4778,    4762,    4859,    4872,    4779,    4763,    4871
     763,    4681,    4608,    4778,    4860,    4680,    4609,    4779,    4872
     764,    4858,    4665,    4681,    4860,    4870,    4664,    4680,    4872
     765,    4857,    4858,    4860,    4859,    4869,    4870,    4872,    4871
     766,    4850,    4857,    4859,    4849,    4862,    4869,    4871,    4861
     767,    4856,    4649,    4665,    4858,    4868,    4648,    4664,    4870
     768,    4855,    4856,    4858,    4857,    4867,    4868,    4870,    4869
     769,    4851,    4855,    4857,    4850,    4863,    4867,    4869,    4862
     770,    4854,    4633,    4649,    4856,    4866,    4632,    4648,    4868
     771,    4853,    4854,    4856,    4855,    4865,    4866,    4868,    4867
     772,    4852,    4853,    4855,    4851,    4864,    4865,    4867,    4863
     773,    4596,    4545,    4633,    4854,    4595,    4544,    4632,    4866
     774,    4580,    4596,    4854,    4853,    4579,    4595,    4866,    4865
     775,    4564,    4580,    4853,    4852,    4563,    4579,    4865,    4864
     776,    4698,    4523,    4564,    4852,    4699,    4524,    4563,    4864
     777,    4714,    4698,    4852,    4851,    4715,    4699,    4864,    4863
     778,    4730,    4714,    4851,    4850,    4731,    4715,    4863,    4862
     779,    4746,    4730,    4850,    4849,    4747,    4731,    4862,    4861
     780,    4871,    4763,    4747,    4861,    4883,    4764,    4748,    4873
     781,    4872,    4779,    4763,    4871,    4884,    4780,    4764,    4883
     782,    4680,    4609,    4779,    4872,    4679,    4610,    4780,    4884
     783,    4870,    4664,    4680,    4872,    4882,    4663,    4679,    4884
     784,    4869,    4870,    4872,    4871,    4881,    4882,    4884,    4883
     785,    4862,    4869,    4871,    4861,    4874,    4881,    4883,    4873
     786,    4868,    4648,    4664,    4870,    4880,    4647,    4663,    4882
     787,    4867,    4868,    4870,    4869,    4879,    4880,    4882,    4881
     788,    4863,    4867,    4869,    4862,    4875,    4879,    4881,    4874
     789,    4866,    4632,    4648,    4868,    4878,    4631,    4647,    4880
     790,    4865,    4866,    4868,    4867,    4877,    4878,    4880,    4879
     791,    4864,    4865,    4867,    4863,    4876,    4877,    4879,    4875
     792,    4595,    4544,    4632,    4866,    4594,    4543,    4631,    4878
     793,    4579,    4595,    4866,    4865,    4578,    4594,    4878,    4877
     794,    4563,    4579,    4865,    4864,    4562,    4578,    4877,    4876
     795,    4699,    4524,    4563,    4864,    4700,    4525,    4562,    4876
     796,    4715,    4699,    4864,    4863,    4716,    4700,    4876,    4875
     797,    4731,    4715,    4863,    4862,    4732,    4716,    4875,    4874
     798,    4747,    4731,    4862,    4861,    4748,    4732,    4874,    4873
     799,    4883,    4764,    4748,    4873,    4895,    4765,    4749,    4885
     800,    4884,    4780,    4764,    4883,    4896,    4781,    4765,    4895
     801,    4679,    4610,    4780,    4884,    4678,    4611,    4781,    4896
     802,    4882,    4663,    4679,    4884,    4894,    4662,    4678,    4896
     803,    4881,    4882,    4884,    4883,    4893,    4894,    4896,    4895
     804,    4874,    4881,    4883,    4873,    4886,    4893,    4895,    4885
     805,    4880,    4647,    4663,    4882,    4892,    4646,    4662,    4894
     806,    4879,    4880,    4882,    4881,    4891,    4892,    4894,    4893
     807,    4875,    4879,    4881,    4874,    4887,    4891,    4893,    4886
     808,    4878,    4631,    4647,    4880,    4890,    4630,    4646,    4892
     809,    4877,    4878,    4880,    4879,    4889,    4890,    4892,    4891
     810,    4876,    4877,    4879,    4875,    4888,    4889,    4891,    4887
     811,    4594,    4543,    4631,    4878,    4593,    4542,    4630,    4890
     812,    4578,    4594,    4878,    4877,    4577,    4593,    4890,    4889
     813,    4562,    4578,    4877,    4876,    4561,    4577,    4889,    4888
     814,    4700,    4525,    4562,    4876,    4701,    4526,    4561,    4888
     815,    4716,    4700,    4876,    4875,    4717,    4701,    4888,    4887
     816,    4732,    4716,    4875,    4874,    4733,    4717,    4887,    4886
     817,    4748,    4732,    4874,    4873,    4749,    4733,    4886,    4885
     818,    4895,    4765,    4749,    4885,    4907,    4766,    4750,    4897
     819,    4896,    4781,    4765,    4895,    4908,    4782,    4766,    4907
     820,    4678,    4611,    4781,    4896,    4677,    4612,    4782,    4908
     821,    4894,    4662,    4678,    4896,    4906,    4661,    4677,    4908
     822,    4893,    4894,    4896,    4895,    4905,    4906,    4908,    4907
     823,    4886,    4893,    4895,    4885,    4898,    4905,    4907,    4897
     824,    4892,    4646,    4662,    4894,    4904,    4645,    4661,    4906
     825,    4891,    4892,    4894,    4893,    4903,    4904,    4906,    4905
     826,    4887,    4891,    4893,    4886,    4899,    4903,    4905,    4898
     827,    4890,    4630,    4646,    4892,    4902,    4629,    4645,    4904
     828,    4889,    4890,    4892,    4891,    4901,    4902,    4904,    4903
     829,    4888,    4889,    4891,    4887,    4900,    4901,    4903,    4899
     830,    4593,    4542,    4630,    4890,    4592,    4541,    4629,    4902
     831,    4577,    4593,    4890,    4889,    4576,    4592,    4902,    4901
     832,    4561,    4577,    4889,    4888,    4560,    4576,    4901,    4900
     833,    4701,    4526,    4561,    4888,    4702,    4527,    4560,    4900
     834,    4717,    4701,    4888,    4887,    4718,    4702,    4900,    4899
     835,    4733,    4717,    4887,    4886,    4734,    4718,    4899,    4898
     836,    4749,    4733,    4886,    4885,    4750,    4734,    4898,    4897
     837,    4907,    4766,    4750,    4897,    4919,    4767,    4751,    4909
     838,    4908,    4782,    4766,    4907,    4920,    4783,    4767,    4919
     839,    4677,    4612,    4782,    4908,    4676,    4613,    4783,    4920
     840,    4906,    4661,    4677,    4908,    4918,    4660,    4676,    4920
     841,    4905,    4906,    4908,    4907,    4917,    4918,    4920,    4919
     842,    4898,    4905,    4907,    4897,    4910,    4917,    4919,    4909
     843,    4904,    4645,    4661,    4906,    4916,    4644,    4660,    4918
     844,    4903,    4904,    4906,    4905,    4915,    4916,    4918,    4917
     845,    4899,    4903,    4905,    4898,    4911,    4915,    4917,    4910
     846,    4902,    4629,    4645,    4904,    4914,    4628,    4644,    4916
     847,    4901,    4902,    4904,    4903,    4913,    4914,    4916,    4915
     848,    4900,    4901,    4903,    4899,    4912,    4913,    4915,    4911
     849,    4592,    4541,    4629,    4902,    4591,    4540,    4628,    4914
     850,    4576,    4592,    4902,    4901,    4575,    4591,    4914,    4913
     851,    4560,    4576,    4901,    4900,    4559,    4575,    4913,    4912
     852,    4702,    4527,    4560,    4900,    4703,    4528,    4559,    4912
     853,    4718,    4702,    4900,    4899,    4719,    4703,    4912,    4911
     854,    4734,    4718,    4899,    4898,    4735,    4719,    4911,    4910
     855,    4750,    4734,    4898,    4897,    4751,    4735,    4910,    4909
     856,    4919,    4767,    4751,    4909,    4931,    4768,    4752,    4921
     857,    4920,    4783,    4767,    4919,    4932,    4784,    4768,    4931
     858,    4676,    4613,    4783,    4920,    4675,    4614,    4784,    4932
     859,    4918,    4660,    4676,    4920,    4930,    4659,    4675,    4932
     860,    4917,    4918,    4920,    4919,    4929,    4930,    4932,    4931
     861,    4910,    4917,    4919,    4909,    4922,    4929,    4931,    4921
     862,    4916,    4644,    4660,    4918,    4928,    4643,    4659,    4930
     863,    4915,    4916,    4918,    4917,    4927,    4928,    4930,    4929
     864,    4911,    4915,    4917,    4910,    4923,    4927,    4929,    4922
     865,    4914,    4628,    4644,    4916,    4926,    4627,    4643,    4928
     866,    4913,    4914,    4916,    4915,    4925,    4926,    4928,    4927
     867,    4912,    4913,    4915,    4911,    4924,    4925,    4927,    4923
     868,    4591,    4540,    4628,    4914,    4590,    4539,    4627,    4926
     869,    4575,    4591,    4914,    4913,    4574,    4590,    4926,    4925
     870,    4559,    4575,    4913,    4912,    4558,    4574,    4925,    4924
     871,    4703,    4528,    4559,    4912,    4704,    4529,    4558,    4924
     872,    4719,    4703,    4912,    4911,    4720,    4704,    4924,    4923
     873,    4735,    4719,    4911,    4910,    4736,    4720,    4923,    4922
     874,    4751,    4735,    4910,    4909,    4752,    4736,    4922,    4921
     875,    4931,    4768,    4752,    4921,    4943,    4769,    4753,    4933
     876,    4932,    4784,    4768,    4931,    4944,    4785,    4769,    4943
     877,    4675,    4614,    4784,    4932,    4674,    4615,    4785,    4944
     878,    4930,    4659,    4675,    4932,    4942,    4658,    4674,    4944
     879,    4929,    4930,    4932,    4931,    4941,    4942,    4944,    4943
     880,    4922,    4929,    4931,    4921,    4934,    4941,    4943,    4933
     881,    4928,    4643,    4659,    4930,    4940,    4642,    4658,    4942
     882,    4927,    4928,    4930,    4929,    4939,    4940,    4942,    4941
     883,    4923,    4927,    4929,    4922,    4935,    4939,    4941,    4934
     884,    4926,    4627,    4643,    4928,    4938,    4626,    4642,    4940
     885,    4925,    4926,    4928,    4927,    4937,    4938,    4940,    4939
     886,    4924,    4925,    4927,    4923,    4936,    4937,    4939,    4935
     887,    4590,    4539,    4627,    4926,    4589,    4538,    4626,    4938
     888,    4574,    4590,    4926,    4925,    4573,    4589,    4938,    4937
     889,    4558,    4574,    4925,    4924,    4557,    4573,    4937,    4936
     890,    4704,    4529,    4558,    4924,    4705,    4530,    4557,    4936
     891,    4720,    4704,    4924,    4923,    4721,    4705,    4936,    4935
     892,    4736,    4720,    4923,    4922,    4737,    4721,    4935,    4934
     893,    4752,    4736,    4922,    4921,    4753,    4737,    4934,    4933
     894,    4943,    4769,    4753,    4933,    4955,    4770,    4754,    4945
     895,    4944,    4785,    4769,    4943,    4956,    4786,    4770,    4955
     896,    4674,    4615,    4785,    4944,    4673,    4616,    4786,    4956
     897,    4942,    4658,    4674,    4944,    4954,    4657,    4673,    4956
     898,    4941,    4942,    4944,    4943,    4953,    4954,    4956,    4955
     899,    4934,    4941,    4943,    4933,    4946,    4953,    4955,    4945
     900,    4940,    4642,    4658,    4942,    4952,    4641,    4657,    4954
     901,    4939,    4940,    4942,    4941,    4951,    4952,    4954,    4953
     902,    4935,    4939,    4941,    4934,    4947,    4951,    4953,    4946
     903,    4938,    4626,    4642,    4940,    4950,    4625,    4641,    4952
     904,    4937,    4938,    4940,    4939,    4949,    4950,    4952,    4951
     905,    4936,    4937,    4939,    4935,    4948,    4949,    4951,    4947
     906,    4589,    4538,    4626,    4938,    4588,    4537,    4625,    4950
     907,    4573,    4589,    4938,    4937,    4572,    4588,    4950,    4949
     908,    4557,    4573,    4937,    4936,    4556,    4572,    4949,    4948
     909,    4705,    4530,    4557,    4936,    4706,    4531,    4556,    4948
     910,    4721,    4705,    4936,    4935,    4722,    4706,    4948,    4947
     911,    4737,    4721,    4935,    4934,    4738,    4722,    4947,    4946
     912,    4753,    4737,    4934,    4933,    4754,    4738,    4946,    4945
     913,    4955,    4770,    4754,    4945,    4967,    4771,    4755,    4957
     914,    4956,    4786,    4770,    4955,    4968,    4787,    4771,    4967
     915,    4673,    4616,    4786,    4956,    4672,    4617,    4787,    4968
     916,    4954,    4657,    4673,    4956,    4966,    4656,    4672,    4968
     917,    4953,    4954,    4956,    4955,    4965,    4966,    4968,    4967
     918,    4946,    4953,    4955,    4945,    4958,    4965,    4967,    4957
     919,    4952,    4641,    4657,    4954,    4964,    4640,    4656,    4966
     920,    4951,    4952,    4954,    4953,    4963,    4964,    4966,    4965
     921,    4947,    4951,    4953,    4946,    4959,    4963,    4965,    4958
     922,    4950,    4625,    4641,    4952,    4962,    4624,    4640,    4964
     923,    4949,    4950,    4952,    4951,    4961,    4962,    4964,    4963
     924,    4948,    4949,    4951,    4947,    4960,    4961,    4963,    4959
     925,    4588,    4537,    4625,    4950,    4587,    4536,    4624,    4962
     926,    4572,    4588,    4950,    4949,    4571,    4587,    4962,    4961
     927,    4556,    4572,    4949,    4948,    4555,    4571,    4961,    4960
     928,    4706,    4531,    4556,    4948,    4707,    4532,    4555,    4960
     929,    4722,    4706,    4948,    4947,    4723,    4707,    4960,    4959
     930,    4738,    4722,    4947,    4946,    4739,    4723,    4959,    4958
     931,    4754,    4738,    4946,    4945,    4755,    4739,    4958,    4957
     932,    4967,    4771,    4755,    4957,    4979,    4772,    4756,    4969
     933,    4968,    4787,    4771,    4967,    4980,    4788,    4772,    4979
     934,    4672,    4617,    4787,    4968,    4671,    4618,    4788,    4980
     935,    4966,    4656,    4672,    4968,    4978,    4655,    4671,    4980
     936,    4965,    4966,    4968,    4967,    4977,    4978,    4980,    4979
     937,    4958,    4965,    4967,    4957,    4970,    4977,    4979,    4969
     938,    4964,    4640,    4656,    4966,    4976,    4639,    4655,    4978
     939,    4963,    4964,    4966,    4965,    4975,    4976,    4978,    4977
     940,    4959,    4963,    4965,    4958,    4971,    4975,    4977,    4970
     941,    4962,    4624,    4640,    4964,    4974,    4623,    4639,    4976
     942,    4961,    4962,    4964,    4963,    4973,    4974,    4976,    4975
     943,    4960,    4961,    4963,    4959,    4972,    4973,    4975,    4971
     944,    4587,    4536,    4624,    4962,    4586,    4535,    4623,    4974
     945,    4571,    4587,    4962,    4961,    4570,    4586,    4974,    4973
     946,    4555,    4571,    4961,    4960,    4554,    4570,    4973,    4972
     947,    4707,    4532,    4555,    4960,    4708,    4533,    4554,    4972
     948,    4723,    4707,    4960,    4959,    4724,    4708,    4972,    4971
     949,    4739,    4723,    4959,    4958,    4740,    4724,    4971,    4970
     950,    4755,    4739,    4958,    4957,    4756,    4740,    4970,    4969
     951,    4979,    4772,    4756,    4969,    4991,    4688,    4689,    4981
     952,    4980,    4788,    4772,    4979,    4992,    4687,    4688,    4991
     953,    4671,    4618,    4788,    4980,    4619,    4602,    4687,    4992
     954,    4978,    4655,    4671,    4980,    4990,    4620,    4619,    4992
     955,    4977,    4978,    4980,    4979,    4989,    4990,    4992,    4991
     956,    4970,    4977,    4979,    4969,    4982,    4989,    4991,    4981
     957,    4976,    4639,    4655,    4978,    4988,    4621,    4620,    4990
     958,    4975,    4976,    4978,    4977,    4987,    4988,    4990,    4989
     959,    4971,    4975,    4977,    4970,    4983,    4987,    4989,    4982
     960,    4974,    4623,    4639,    4976,    4986,    4622,    4621,    4988
     961,    4973,    4974,    4976,    4975,    4985,    4986,    4988,    4987
     962,    4972,    4973,    4975,    4971,    4984,    4985,    4987,    4983
     963,    4586,    4535,    4623,    4974,    4553,    4534,    4622,    4986
     964,    4570,    4586,    4974,    4973,    4552,    4553,    4986,    4985
     965,    4554,    4570,    4973,    4972,    4551,    4552,    4985,    4984
     966,    4708,    4533,    4554,    4972,    4692,    4517,    4551,    4984
     967,    4724,    4708,    4972,    4971,    4691,    4692,    4984,    4983
     968,    4740,    4724,    4971,    4970,    4690,    4691,    4983,    4982
     969,    4756,    4740,    4970,    4969,    4689,    4690,    4982,    4981
     970,   11502,   11400,   11590,   11592,   11279,   11278,   11316,   11381
     971,   11485,   11502,   11592,   11596,   11280,   11279,   11381,   11382
     972,   11468,   11485,   11596,   11600,   11281,   11280,   11382,   11383
     973,   11599,   11451,   11468,   11600,   11384,   11282,   11281,   11383
     974,   11601,   11434,   11451,   11599,   11385,   11283,   11282,   11384
     975,   11602,   11417,   11434,   11601,   11386,   11284,   11283,   11385
     976,    5480,    5458,   11417,   11602,    5307,    5301,   11284,   11386
     977,   11598,    5497,    5480,   11602,   11387,    5308,    5307,   11386
     978,   11597,   11598,   11602,   11601,   11388,   11387,   11386,   11385
     979,   11595,   11597,   11601,   11599,   11389,   11388,   11385,   11384
     980,   11596,   11595,   11599,   11600,   11382,   11389,   11384,   11383
     981,   11594,    5514,    5497,   11598,   11390,    5309,    5308,   11387
     982,   11593,   11594,   11598,   11597,   11391,   11390,   11387,   11388
     983,   11591,   11593,   11597,   11595,   11392,   11391,   11388,   11389
     984,   11592,   11591,   11595,   11596,   11381,   11392,   11389,   11382
     985,   11539,    5463,    5514,   11594,   11313,    5306,    5309,   11390
     986,   11556,   11539,   11594,   11593,   11314,   11313,   11390,   11391
     987,   11573,   11556,   11593,   11591,   11315,   11314,   11391,   11392
     988,   11590,   11573,   11591,   11592,   11316,   11315,   11392,   11381
     989,   11503,   11401,   11589,   11604,   11502,   11400,   11590,   11592
     990,   11486,   11503,   11604,   11608,   11485,   11502,   11592,   11596
     991,   11469,   11486,   11608,   11612,   11468,   11485,   11596,   11600
     992,   11611,   11452,   11469,   11612,   11599,   11451,   11468,   11600
     993,   11613,   11435,   11452,   11611,   11601,   11434,   11451,   11599
     994,   11614,   11418,   11435,   11613,   11602,   11417,   11434,   11601
     995,    5481,    5457,   11418,   11614,    5480,    5458,   11417,   11602
     996,   11610,    5498,    5481,   11614,   11598,    5497,    5480,   11602
     997,   11609,   11610,   11614,   11613,   11597,   11598,   11602,   11601
     998,   11607,   11609,   11613,   11611,   11595,   11597,   11601,   11599
     999,   11608,   11607,   11611,   11612,   11596,   11595,   11599,   11600
    1000,   11606,    5515,    5498,   11610,   11594,    5514,    5497,   11598
    1001,   11605,   11606,   11610,   11609,   11593,   11594,   11598,   11597
    1002,   11603,   11605,   11609,   11607,   11591,   11593,   11597,   11595
    1003,   11604,   11603,   11607,   11608,   11592,   11591,   11595,   11596
    1004,   11538,    5464,    5515,   11606,   11539,    5463,    5514,   11594
    1005,   11555,   11538,   11606,   11605,   11556,   11539,   11594,   11593
    1006,   11572,   11555,   11605,   11603,   11573,   11556,   11593,   11591
    1007,   11589,   11572,   11603,   11604,   11590,   11573,   11591,   11592
    1008,   11504,   11402,   11588,   11616,   11503,   11401,   11589,   11604
    1009,   11487,   11504,   11616,   11620,   11486,   11503,   11604,   11608
    1010,   11470,   11487,   11620,   11624,   11469,   11486,   11608,   11612
    1011,   11623,   11453,   11470,   11624,   11611,   11452,   11469,   11612
    1012,   11625,   11436,   11453,   11623,   11613,   11435,   11452,   11611
    1013,   11626,   11419,   11436,   11625,   11614,   11418,   11435,   11613
    1014,    5482,    5456,   11419,   11626,    5481,    5457,   11418,   11614
    1015,   11622,    5499,    5482,   11626,   11610,    5498,    5481,   11614
    1016,   11621,   11622,   11626,   11625,   11609,   11610,   11614,   11613
    1017,   11619,   11621,   11625,   11623,   11607,   11609,   11613,   11611
    1018,   11620,   11619,   11623,   11624,   11608,   11607,   11611,   11612
    1019,   11618,    5516,    5499,   11622,   11606,    5515,    5498,   11610
    1020,   11617,   11618,   11622,   11621,   11605,   11606,   11610,   11609
    1021,   11615,   11617,   11621,   11619,   11603,   11605,   11609,   11607
    1022,   11616,   11615,   11619,   11620,   11604,   11603,   11607,   11608
    1023,   11537,    5465,    5516,   11618,   11538,    5464,    5515,   11606
    1024,   11554,   11537,   11618,   11617,   11555,   11538,   11606,   11605
    1025,   11571,   11554,   11617,   11615,   11572,   11555,   11605,   11603
    1026,   11588,   11571,   11615,   11616,   11589,   11572,   11603,   11604
    1027,   11505,   11403,   11587,   11628,   11504,   11402,   11588,   11616
    1028,   11488,   11505,   11628,   11632,   11487,   11504,   11616,   11620
    1029,   11471,   11488,   11632,   11636,   11470,   11487,   11620,   11624
    1030,   11635,   11454,   11471,   11636,   11623,   11453,   11470,   11624
    1031,   11637,   11437,   11454,   11635,   11625,   11436,   11453,   11623
    1032,   11638,   11420,   11437,   11637,   11626,   11419,   11436,   11625
    1033,    5483,    5455,   11420,   11638,    5482,    5456,   11419,   11626
    1034,   11634,    5500,    5483,   11638,   11622,    5499,    5482,   11626
    1035,   11633,   11634,   11638,   11637,   11621,   11622,   11626,   11625
    1036,   11631,   11633,   11637,   11635,   11619,   11621,   11625,   11623
    1037,   11632,   11631,   11635,   11636,   11620,   11619,   11623,   11624
    1038,   11630,    5517,    5500,   11634,   11618,    5516,    5499,   11622
    1039,   11629,   11630,   11634,   11633,   11617,   11618,   11622,   11621
    1040,   11627,   11629,   11633,   11631,   11615,   11617,   11621,   11619
    1041,   11628,   11627,   11631,   11632,   11616,   11615,   11619,   11620
    1042,   11536,    5466,    5517,   11630,   11537,    5465,    5516,   11618
    1043,   11553,   11536,   11630,   11629,   11554,   11537,   11618,   11617
    1044,   11570,   11553,   11629,   11627,   11571,   11554,   11617,   11615
    1045,   11587,   11570,   11627,   11628,   11588,   11571,   11615,   11616
    1046,   11506,   11404,   11586,   11640,   11505,   11403,   11587,   11628
    1047,   11489,   11506,   11640,   11644,   11488,   11505,   11628,   11632
    1048,   11472,   11489,   11644,   11648,   11471,   11488,   11632,   11636
    1049,   11647,   11455,   11472,   11648,   11635,   11454,   11471,   11636
    1050,   11649,   11438,   11455,   11647,   11637,   11437,   11454,   11635
    1051,   11650,   11421,   11438,   11649,   11638,   11420,   11437,   11637
    1052,    5484,    5454,   11421,   11650,    5483,    5455,   11420,   11638
    1053,   11646,    5501,    5484,   11650,   11634,    5500,    5483,   11638
    1054,   11645,   11646,   11650,   11649,   11633,   11634,   11638,   11637
    1055,   11643,   11645,   11649,   11647,   11631,   11633,   11637,   11635
    1056,   11644,   11643,   11647,   11648,   11632,   11631,   11635,   11636
    1057,   11642,    5518,    5501,   11646,   11630,    5517,    5500,   11634
    1058,   11641,   11642,   11646,   11645,   11629,   11630,   11634,   11633
    1059,   11639,   11641,   11645,   11643,   11627,   11629,   11633,   11631
    1060,   11640,   11639,   11643,   11644,   11628,   11627,   11631,   11632
    1061,   11535,    5467,    5518,   11642,   11536,    5466,    5517,   11630
    1062,   11552,   11535,   11642,   11641,   11553,   11536,   11630,   11629
    1063,   11569,   11552,   11641,   11639,   11570,   11553,   11629,   11627
    1064,   11586,   11569,   11639,   11640,   11587,   11570,   11627,   11628
    1065,   11507,   11405,   11585,   11652,   11506,   11404,   11586,   11640
    1066,   11490,   11507,   11652,   11656,   11489,   11506,   11640,   11644
    1067,   11473,   11490,   11656,   11660,   11472,   11489,   11644,   11648
    1068,   11659,   11456,   11473,   11660,   11647,   11455,   11472,   11648
    1069,   11661,   11439,   11456,   11659,   11649,   11438,   11455,   11647
    1070,   11662,   11422,   11439,   11661,   11650,   11421,   11438,   11649
    1071,    5485,    5453,   11422,   11662,    5484,    5454,   11421,   11650
    1072,   11658,    5502,    5485,   11662,   11646,    5501,    5484,   11650
    1073,   11657,   11658,   11662,   11661,   11645,   11646,   11650,   11649
    1074,   11655,   11657,   11661,   11659,   11643,   11645,   11649,   11647
    1075,   11656,   11655,   11659,   11660,   11644,   11643,   11647,   11648
    1076,   11654,    5519,    5502,   11658,   11642,    5518,    5501,   11646
    1077,   11653,   11654,   11658,   11657,   11641,   11642,   11646,   11645
    1078,   11651,   11653,   11657,   11655,   11639,   11641,   11645,   11643
    1079,   11652,   11651,   11655,   11656,   11640,   11639,   11643,   11644
    1080,   11534,    5468,    5519,   11654,   11535,    5467,    5518,   11642
    1081,   11551,   11534,   11654,   11653,   11552,   11535,   11642,   11641
    1082,   11568,   11551,   11653,   11651,   11569,   11552,   11641,   11639
    1083,   11585,   11568,   11651,   11652,   11586,   11569,   11639,   11640
    1084,   11508,   11406,   11584,   11664,   11507,   11405,   11585,   11652
    1085,   11491,   11508,   11664,   11668,   11490,   11507,   11652,   11656
    1086,   11474,   11491,   11668,   11672,   11473,   11490,   11656,   11660
    1087,   11671,   11457,   11474,   11672,   11659,   11456,   11473,   11660
    1088,   11673,   11440,   11457,   11671,   11661,   11439,   11456,   11659
    1089,   11674,   11423,   11440,   11673,   11662,   11422,   11439,   11661
    1090,    5486,    5452,   11423,   11674,    5485,    5453,   11422,   11662
    1091,   11670,    5503,    5486,   11674,   11658,    5502,    5485,   11662
    1092,   11669,   11670,   11674,   11673,   11657,   11658,   11662,   11661
    1093,   11667,   11669,   11673,   11671,   11655,   11657,   11661,   11659
    1094,   11668,   11667,   11671,   11672,   11656,   11655,   11659,   11660
    1095,   11666,    5520,    5503,   11670,   11654,    5519,    5502,   11658
    1096,   11665,   11666,   11670,   11669,   11653,   11654,   11658,   11657
    1097,   11663,   11665,   11669,   11667,   11651,   11653,   11657,   11655
    1098,   11664,   11663,   11667,   11668,   11652,   11651,   11655,   11656
    1099,   11533,    5469,    5520,   11666,   11534,    5468,    5519,   11654
    1100,   11550,   11533,   11666,   11665,   11551,   11534,   11654,   11653
    1101,   11567,   11550,   11665,   11663,   11568,   11551,   11653,   11651
    1102,   11584,   11567,   11663,   11664,   11585,   11568,   11651,   11652
    1103,   11509,   11407,   11583,   11676,   11508,   11406,   11584,   11664
    1104,   11492,   11509,   11676,   11680,   11491,   11508,   11664,   11668
    1105,   11475,   11492,   11680,   11684,   11474,   11491,   11668,   11672
    1106,   11683,   11458,   11475,   11684,   11671,   11457,   11474,   11672
    1107,   11685,   11441,   11458,   11683,   11673,   11440,   11457,   11671
    1108,   11686,   11424,   11441,   11685,   11674,   11423,   11440,   11673
    1109,    5487,    5451,   11424,   11686,    5486,    5452,   11423,   11674
    1110,   11682,    5504,    5487,   11686,   11670,    5503,    5486,   11674
    1111,   11681,   11682,   11686,   11685,   11669,   11670,   11674,   11673
    1112,   11679,   11681,   11685,   11683,   11667,   11669,   11673,   11671
    1113,   11680,   11679,   11683,   11684,   11668,   11667,   11671,   11672
    1114,   11678,    5521,    5504,   11682,   11666,    5520,    5503,   11670
    1115,   11677,   11678,   11682,   11681,   11665,   11666,   11670,   11669
    1116,   11675,   11677,   11681,   11679,   11663,   11665,   11669,   11667
    1117,   11676,   11675,   11679,   11680,   11664,   11663,   11667,   11668
    1118,   11532,    5470,    5521,   11678,   11533,    5469,    5520,   11666
    1119,   11549,   11532,   11678,   11677,   11550,   11533,   11666,   11665
    1120,   11566,   11549,   11677,   11675,   11567,   11550,   11665,   11663
    1121,   11583,   11566,   11675,   11676,   11584,   11567,   11663,   11664
    1122,   11510,   11408,   11582,   11688,   11509,   11407,   11583,   11676
    1123,   11493,   11510,   11688,   11692,   11492,   11509,   11676,   11680
    1124,   11476,   11493,   11692,   11696,   11475,   11492,   11680,   11684
    1125,   11695,   11459,   11476,   11696,   11683,   11458,   11475,   11684
    1126,   11697,   11442,   11459,   11695,   11685,   11441,   11458,   11683
    1127,   11698,   11425,   11442,   11697,   11686,   11424,   11441,   11685
    1128,    5488,    5450,   11425,   11698,    5487,    5451,   11424,   11686
    1129,   11694,    5505,    5488,   11698,   11682,    5504,    5487,   11686
    1130,   11693,   11694,   11698,   11697,   11681,   11682,   11686,   11685
    1131,   11691,   11693,   11697,   11695,   11679,   11681,   11685,   11683
    1132,   11692,   11691,   11695,   11696,   11680,   11679,   11683,   11684
    1133,   11690,    5522,    5505,   11694,   11678,    5521,    5504,   11682
    1134,   11689,   11690,   11694,   11693,   11677,   11678,   11682,   11681
    1135,   11687,   11689,   11693,   11691,   11675,   11677,   11681,   11679
    1136,   11688,   11687,   11691,   11692,   11676,   11675,   11679,   11680
    1137,   11531,    5471,    5522,   11690,   11532,    5470,    5521,   11678
    1138,   11548,   11531,   11690,   11689,   11549,   11532,   11678,   11677
    1139,   11565,   11548,   11689,   11687,   11566,   11549,   11677,   11675
    1140,   11582,   11565,   11687,   11688,   11583,   11566,   11675,   11676
    1141,   11511,   11409,   11581,   11700,   11510,   11408,   11582,   11688
    1142,   11494,   11511,   11700,   11704,   11493,   11510,   11688,   11692
    1143,   11477,   11494,   11704,   11708,   11476,   11493,   11692,   11696
    1144,   11707,   11460,   11477,   11708,   11695,   11459,   11476,   11696
    1145,   11709,   11443,   11460,   11707,   11697,   11442,   11459,   11695
    1146,   11710,   11426,   11443,   11709,   11698,   11425,   11442,   11697
    1147,    5489,    5449,   11426,   11710,    5488,    5450,   11425,   11698
    1148,   11706,    5506,    5489,   11710,   11694,    5505,    5488,   11698
    1149,   11705,   11706,   11710,   11709,   11693,   11694,   11698,   11697
    1150,   11703,   11705,   11709,   11707,   11691,   11693,   11697,   11695
    1151,   11704,   11703,   11707,   11708,   11692,   11691,   11695,   11696
    1152,   11702,    5523,    5506,   11706,   11690,    5522,    5505,   11694
    1153,   11701,   11702,   11706,   11705,   11689,   11690,   11694,   11693
    1154,   11699,   11701,   11705,   11703,   11687,   11689,   11693,   11691
    1155,   11700,   11699,   11703,   11704,   11688,   11687,   11691,   11692
    1156,   11530,    5472,    5523,   11702,   11531,    5471,    5522,   11690
    1157,   11547,   11530,   11702,   11701,   11548,   11531,   11690,   11689
    1158,   11564,   11547,   11701,   11699,   11565,   11548,   11689,   11687
    1159,   11581,   11564,   11699,   11700,   11582,   11565,   11687,   11688
    1160,   11512,   11410,   11580,   11712,   11511,   11409,   11581,   11700
    1161,   11495,   11512,   11712,   11716,   11494,   11511,   11700,   11704
    1162,   11478,   11495,   11716,   11720,   11477,   11494,   11704,   11708
    1163,   11719,   11461,   11478,   11720,   11707,   11460,   11477,   11708
    1164,   11721,   11444,   11461,   11719,   11709,   11443,   11460,   11707
    1165,   11722,   11427,   11444,   11721,   11710,   11426,   11443,   11709
    1166,    5490,    5448,   11427,   11722,    5489,    5449,   11426,   11710
    1167,   11718,    5507,    5490,   11722,   11706,    5506,    5489,   11710
    1168,   11717,   11718,   11722,   11721,   11705,   11706,   11710,   11709
    1169,   11715,   11717,   11721,   11719,   11703,   11705,   11709,   11707
    1170,   11716,   11715,   11719,   11720,   11704,   11703,   11707,   11708
    1171,   11714,    5524,    5507,   11718,   11702,    5523,    5506,   11706
    1172,   11713,   11714,   11718,   11717,   11701,   11702,   11706,   11705
    1173,   11711,   11713,   11717,   11715,   11699,   11701,   11705,   11703
    1174,   11712,   11711,   11715,   11716,   11700,   11699,   11703,   11704
    1175,   11529,    5473,    5524,   11714,   11530,    5472,    5523,   11702
    1176,   11546,   11529,   11714,   11713,   11547,   11530,   11702,   11701
    1177,   11563,   11546,   11713,   11711,   11564,   11547,   11701,   11699
    1178,   11580,   11563,   11711,   11712,   11581,   11564,   11699,   11700
    1179,   11513,   11411,   11579,   11724,   11512,   11410,   11580,   11712
    1180,   11496,   11513,   11724,   11728,   11495,   11512,   11712,   11716
    1181,   11479,   11496,   11728,   11732,   11478,   11495,   11716,   11720
    1182,   11731,   11462,   11479,   11732,   11719,   11461,   11478,   11720
    1183,   11733,   11445,   11462,   11731,   11721,   11444,   11461,   11719
    1184,   11734,   11428,   11445,   11733,   11722,   11427,   11444,   11721
    1185,    5491,    5447,   11428,   11734,    5490,    5448,   11427,   11722
    1186,   11730,    5508,    5491,   11734,   11718,    5507,    5490,   11722
    1187,   11729,   11730,   11734,   11733,   11717,   11718,   11722,   11721
    1188,   11727,   11729,   11733,   11731,   11715,   11717,   11721,   11719
    1189,   11728,   11727,   11731,   11732,   11716,   11715,   11719,   11720
    1190,   11726,    5525,    5508,   11730,   11714,    5524,    5507,   11718
    1191,   11725,   11726,   11730,   11729,   11713,   11714,   11718,   11717
    1192,   11723,   11725,   11729,   11727,   11711,   11713,   11717,   11715
    1193,   11724,   11723,   11727,   11728,   11712,   11711,   11715,   11716
    1194,   11528,    5474,    5525,   11726,   11529,    5473,    5524,   11714
    1195,   11545,   11528,   11726,   11725,   11546,   11529,   11714,   11713
    1196,   11562,   11545,   11725,   11723,   11563,   11546,   11713,   11711
    1197,   11579,   11562,   11723,   11724,   11580,   11563,   11711,   11712
    1198,   11514,   11412,   11578,   11736,   11513,   11411,   11579,   11724
    1199,   11497,   11514,   11736,   11740,   11496,   11513,   11724,   11728
    1200,   11480,   11497,   11740,   11744,   11479,   11496,   11728,   11732
    1201,   11743,   11463,   11480,   11744,   11731,   11462,   11479,   11732
    1202,   11745,   11446,   11463,   11743,   11733,   11445,   11462,   11731
    1203,   11746,   11429,   11446,   11745,   11734,   11428,   11445,   11733
    1204,    5492,    5446,   11429,   11746,    5491,    5447,   11428,   11734
    1205,   11742,    5509,    5492,   11746,   11730,    5508,    5491,   11734
    1206,   11741,   11742,   11746,   11745,   11729,   11730,   11734,   11733
    1207,   11739,   11741,   11745,   11743,   11727,   11729,   11733,   11731
    1208,   11740,   11739,   11743,   11744,   11728,   11727,   11731,   11732
    1209,   11738,    5526,    5509,   11742,   11726,    5525,    5508,   11730
    1210,   11737,   11738,   11742,   11741,   11725,   11726,   11730,   11729
    1211,   11735,   11737,   11741,   11739,   11723,   11725,   11729,   11727
    1212,   11736,   11735,   11739,   11740,   11724,   11723,   11727,   11728
    1213,   11527,    5475,    5526,   11738,   11528,    5474,    5525,   11726
    1214,   11544,   11527,   11738,   11737,   11545,   11528,   11726,   11725
    1215,   11561,   11544,   11737,   11735,   11562,   11545,   11725,   11723
    1216,   11578,   11561,   11735,   11736,   11579,   11562,   11723,   11724
    1217,   11515,   11413,   11577,   11748,   11514,   11412,   11578,   11736
    1218,   11498,   11515,   11748,   11752,   11497,   11514,   11736,   11740
    1219,   11481,   11498,   11752,   11756,   11480,   11497,   11740,   11744
    1220,   11755,   11464,   11481,   11756,   11743,   11463,   11480,   11744
    1221,   11757,   11447,   11464,   11755,   11745,   11446,   11463,   11743
    1222,   11758,   11430,   11447,   11757,   11746,   11429,   11446,   11745
    1223,    5493,    5445,   11430,   11758,    5492,    5446,   11429,   11746
    1224,   11754,    5510,    5493,   11758,   11742,    5509,    5492,   11746
    1225,   11753,   11754,   11758,   11757,   11741,   11742,   11746,   11745
    1226,   11751,   11753,   11757,   11755,   11739,   11741,   11745,   11743
    1227,   11752,   11751,   11755,   11756,   11740,   11739,   11743,   11744
    1228,   11750,    5527,    5510,   11754,   11738,    5526,    5509,   11742
    1229,   11749,   11750,   11754,   11753,   11737,   11738,   11742,   11741
    1230,   11747,   11749,   11753,   11751,   11735,   11737,   11741,   11739
    1231,   11748,   11747,   11751,   11752,   11736,   11735,   11739,   11740
    1232,   11526,    5476,    5527,   11750,   11527,    5475,    5526,   11738
    1233,   11543,   11526,   11750,   11749,   11544,   11527,   11738,   11737
    1234,   11560,   11543,   11749,   11747,   11561,   11544,   11737,   11735
    1235,   11577,   11560,   11747,   11748,   11578,   11561,   11735,   11736
    1236,   11516,   11414,   11576,   11760,   11515,   11413,   11577,   11748
    1237,   11499,   11516,   11760,   11764,   11498,   11515,   11748,   11752
    1238,   11482,   11499,   11764,   11768,   11481,   11498,   11752,   11756
    1239,   11767,   11465,   11482,   11768,   11755,   11464,   11481,   11756
    1240,   11769,   11448,   11465,   11767,   11757,   11447,   11464,   11755
    1241,   11770,   11431,   11448,   11769,   11758,   11430,   11447,   11757
    1242,    5494,    5444,   11431,   11770,    5493,    5445,   11430,   11758
    1243,   11766,    5511,    5494,   11770,   11754,    5510,    5493,   11758
    1244,   11765,   11766,   11770,   11769,   11753,   11754,   11758,   11757
    1245,   11763,   11765,   11769,   11767,   11751,   11753,   11757,   11755
    1246,   11764,   11763,   11767,   11768,   11752,   11751,   11755,   11756
    1247,   11762,    5528,    5511,   11766,   11750,    5527,    5510,   11754
    1248,   11761,   11762,   11766,   11765,   11749,   11750,   11754,   11753
    1249,   11759,   11761,   11765,   11763,   11747,   11749,   11753,   11751
    1250,   11760,   11759,   11763,   11764,   11748,   11747,   11751,   11752
    1251,   11525,    5477,    5528,   11762,   11526,    5476,    5527,   11750
    1252,   11542,   11525,   11762,   11761,   11543,   11526,   11750,   11749
    1253,   11559,   11542,   11761,   11759,   11560,   11543,   11749,   11747
    1254,   11576,   11559,   11759,   11760,   11577,   11560,   11747,   11748
    1255,   11517,   11415,   11575,   11772,   11516,   11414,   11576,   11760
    1256,   11500,   11517,   11772,   11776,   11499,   11516,   11760,   11764
    1257,   11483,   11500,   11776,   11780,   11482,   11499,   11764,   11768
    1258,   11779,   11466,   11483,   11780,   11767,   11465,   11482,   11768
    1259,   11781,   11449,   11466,   11779,   11769,   11448,   11465,   11767
    1260,   11782,   11432,   11449,   11781,   11770,   11431,   11448,   11769
    1261,    5495,    5443,   11432,   11782,    5494,    5444,   11431,   11770
    1262,   11778,    5512,    5495,   11782,   11766,    5511,    5494,   11770
    1263,   11777,   11778,   11782,   11781,   11765,   11766,   11770,   11769
    1264,   11775,   11777,   11781,   11779,   11763,   11765,   11769,   11767
    1265,   11776,   11775,   11779,   11780,   11764,   11763,   11767,   11768
    1266,   11774,    5529,    5512,   11778,   11762,    5528,    5511,   11766
    1267,   11773,   11774,   11778,   11777,   11761,   11762,   11766,   11765
    1268,   11771,   11773,   11777,   11775,   11759,   11761,   11765,   11763
    1269,   11772,   11771,   11775,   11776,   11760,   11759,   11763,   11764
    1270,   11524,    5478,    5529,   11774,   11525,    5477,    5528,   11762
    1271,   11541,   11524,   11774,   11773,   11542,   11525,   11762,   11761
    1272,   11558,   11541,   11773,   11771,   11559,   11542,   11761,   11759
    1273,   11575,   11558,   11771,   11772,   11576,   11559,   11759,   11760
    1274,   11518,   11416,   11574,   11784,   11517,   11415,   11575,   11772
    1275,   11501,   11518,   11784,   11788,   11500,   11517,   11772,   11776
    1276,   11484,   11501,   11788,   11792,   11483,   11500,   11776,   11780
    1277,   11791,   11467,   11484,   11792,   11779,   11466,   11483,   11780
    1278,   11793,   11450,   11467,   11791,   11781,   11449,   11466,   11779
    1279,   11794,   11433,   11450,   11793,   11782,   11432,   11449,   11781
    1280,    5496,    5442,   11433,   11794,    5495,    5443,   11432,   11782
    1281,   11790,    5513,    5496,   11794,   11778,    5512,    5495,   11782
    1282,   11789,   11790,   11794,   11793,   11777,   11778,   11782,   11781
    1283,   11787,   11789,   11793,   11791,   11775,   11777,   11781,   11779
    1284,   11788,   11787,   11791,   11792,   11776,   11775,   11779,   11780
    1285,   11786,    5530,    5513,   11790,   11774,    5529,    5512,   11778
    1286,   11785,   11786,   11790,   11789,   11773,   11774,   11778,   11777
    1287,   11783,   11785,   11789,   11787,   11771,   11773,   11777,   11775
    1288,   11784,   11783,   11787,   11788,   11772,   11771,   11775,   11776
    1289,   11523,    5479,    5530,   11786,   11524,    5478,    5529,   11774
    1290,   11540,   11523,   11786,   11785,   11541,   11524,   11774,   11773
    1291,   11557,   11540,   11785,   11783,   11558,   11541,   11773,   11771
    1292,   11574,   11557,   11783,   11784,   11575,   11558,   11771,   11772
    1293,   11394,   11393,   11519,   11796,   11518,   11416,   11574,   11784
    1294,   11395,   11394,   11796,   11800,   11501,   11518,   11784,   11788
    1295,   11396,   11395,   11800,   11804,   11484,   11501,   11788,   11792
    1296,   11803,   11397,   11396,   11804,   11791,   11467,   11484,   11792
    1297,   11805,   11398,   11397,   11803,   11793,   11450,   11467,   11791
    1298,   11806,   11399,   11398,   11805,   11794,   11433,   11450,   11793
    1299,    5462,    5441,   11399,   11806,    5496,    5442,   11433,   11794
    1300,   11802,    5461,    5462,   11806,   11790,    5513,    5496,   11794
    1301,   11801,   11802,   11806,   11805,   11789,   11790,   11794,   11793
    1302,   11799,   11801,   11805,   11803,   11787,   11789,   11793,   11791
    1303,   11800,   11799,   11803,   11804,   11788,   11787,   11791,   11792
    1304,   11798,    5460,    5461,   11802,   11786,    5530,    5513,   11790
    1305,   11797,   11798,   11802,   11801,   11785,   11786,   11790,   11789
    1306,   11795,   11797,   11801,   11799,   11783,   11785,   11789,   11787
    1307,   11796,   11795,   11799,   11800,   11784,   11783,   11787,   11788
    1308,   11522,    5459,    5460,   11798,   11523,    5479,    5530,   11786
    1309,   11521,   11522,   11798,   11797,   11540,   11523,   11786,   11785
    1310,   11520,   11521,   11797,   11795,   11557,   11540,   11785,   11783
    1311,   11519,   11520,   11795,   11796,   11574,   11557,   11783,   11784
    1312,   11332,   11328,   11344,   11333,   11105,   11104,   11266,   11267
    1313,   11328,   11324,   11343,   11344,   11104,   11103,   11268,   11266
    1314,   11324,   11320,   11342,   11343,   11103,   11102,   11269,   11268
    1315,   11320,    5310,    5322,   11342,   11102,    5004,    5007,   11269
    1316,   11333,   11344,   11341,   11334,   11267,   11266,   11270,   11271
    1317,   11344,   11343,   11340,   11341,   11266,   11268,   11272,   11270
    1318,   11343,   11342,   11339,   11340,   11268,   11269,   11273,   11272
    1319,   11342,    5322,    5318,   11339,   11269,    5007,    5006,   11273
    1320,   11334,   11341,   11336,   11335,   11271,   11270,   11274,   11275
    1321,   11341,   11340,   11337,   11336,   11270,   11272,   11276,   11274
    1322,   11340,   11339,   11338,   11337,   11272,   11273,   11277,   11276
    1323,   11339,    5318,    5314,   11338,   11273,    5006,    5005,   11277
    1324,    5314,    5305,   11289,   11338,    5005,    4993,   11031,   11277
    1325,   11338,   11289,   11293,   11337,   11277,   11031,   11030,   11276
    1326,   11337,   11293,   11297,   11336,   11276,   11030,   11029,   11274
    1327,   11336,   11297,   11301,   11335,   11274,   11029,   11028,   11275
    1328,   11301,   11305,   11334,   11335,   11028,   11027,   11271,   11275
    1329,   11305,   11309,   11333,   11334,   11027,   11026,   11267,   11271
    1330,   11309,   11285,   11332,   11333,   11026,   11025,   11105,   11267
    1331,   11331,   11327,   11356,   11345,   11332,   11328,   11344,   11333
    1332,   11327,   11323,   11355,   11356,   11328,   11324,   11343,   11344
    1333,   11323,   11319,   11354,   11355,   11324,   11320,   11342,   11343
    1334,   11319,    5311,    5323,   11354,   11320,    5310,    5322,   11342
    1335,   11345,   11356,   11353,   11346,   11333,   11344,   11341,   11334
    1336,   11356,   11355,   11352,   11353,   11344,   11343,   11340,   11341
    1337,   11355,   11354,   11351,   11352,   11343,   11342,   11339,   11340
    1338,   11354,    5323,    5319,   11351,   11342,    5322,    5318,   11339
    1339,   11346,   11353,   11348,   11347,   11334,   11341,   11336,   11335
    1340,   11353,   11352,   11349,   11348,   11341,   11340,   11337,   11336
    1341,   11352,   11351,   11350,   11349,   11340,   11339,   11338,   11337
    1342,   11351,    5319,    5315,   11350,   11339,    5318,    5314,   11338
    1343,    5315,    5304,   11290,   11350,    5314,    5305,   11289,   11338
    1344,   11350,   11290,   11294,   11349,   11338,   11289,   11293,   11337
    1345,   11349,   11294,   11298,   11348,   11337,   11293,   11297,   11336
    1346,   11348,   11298,   11302,   11347,   11336,   11297,   11301,   11335
    1347,   11302,   11306,   11346,   11347,   11301,   11305,   11334,   11335
    1348,   11306,   11310,   11345,   11346,   11305,   11309,   11333,   11334
    1349,   11310,   11286,   11331,   11345,   11309,   11285,   11332,   11333
    1350,   11330,   11326,   11368,   11357,   11331,   11327,   11356,   11345
    1351,   11326,   11322,   11367,   11368,   11327,   11323,   11355,   11356
    1352,   11322,   11318,   11366,   11367,   11323,   11319,   11354,   11355
    1353,   11318,    5312,    5324,   11366,   11319,    5311,    5323,   11354
    1354,   11357,   11368,   11365,   11358,   11345,   11356,   11353,   11346
    1355,   11368,   11367,   11364,   11365,   11356,   11355,   11352,   11353
    1356,   11367,   11366,   11363,   11364,   11355,   11354,   11351,   11352
    1357,   11366,    5324,    5320,   11363,   11354,    5323,    5319,   11351
    1358,   11358,   11365,   11360,   11359,   11346,   11353,   11348,   11347
    1359,   11365,   11364,   11361,   11360,   11353,   11352,   11349,   11348
    1360,   11364,   11363,   11362,   11361,   11352,   11351,   11350,   11349
    1361,   11363,    5320,    5316,   11362,   11351,    5319,    5315,   11350
    1362,    5316,    5303,   11291,   11362,    5315,    5304,   11290,   11350
    1363,   11362,   11291,   11295,   11361,   11350,   11290,   11294,   11349
    1364,   11361,   11295,   11299,   11360,   11349,   11294,   11298,   11348
    1365,   11360,   11299,   11303,   11359,   11348,   11298,   11302,   11347
    1366,   11303,   11307,   11358,   11359,   11302,   11306,   11346,   11347
    1367,   11307,   11311,   11357,   11358,   11306,   11310,   11345,   11346
    1368,   11311,   11287,   11330,   11357,   11310,   11286,   11331,   11345
    1369,   11329,   11325,   11380,   11369,   11330,   11326,   11368,   11357
    1370,   11325,   11321,   11379,   11380,   11326,   11322,   11367,   11368
    1371,   11321,   11317,   11378,   11379,   11322,   11318,   11366,   11367
    1372,   11317,    5313,    5325,   11378,   11318,    5312,    5324,   11366
    1373,   11369,   11380,   11377,   11370,   11357,   11368,   11365,   11358
    1374,   11380,   11379,   11376,   11377,   11368,   11367,   11364,   11365
    1375,   11379,   11378,   11375,   11376,   11367,   11366,   11363,   11364
    1376,   11378,    5325,    5321,   11375,   11366,    5324,    5320,   11363
    1377,   11370,   11377,   11372,   11371,   11358,   11365,   11360,   11359
    1378,   11377,   11376,   11373,   11372,   11365,   11364,   11361,   11360
    1379,   11376,   11375,   11374,   11373,   11364,   11363,   11362,   11361
    1380,   11375,    5321,    5317,   11374,   11363,    5320,    5316,   11362
    1381,    5317,    5302,   11292,   11374,    5316,    5303,   11291,   11362
    1382,   11374,   11292,   11296,   11373,   11362,   11291,   11295,   11361
    1383,   11373,   11296,   11300,   11372,   11361,   11295,   11299,   11360
    1384,   11372,   11300,   11304,   11371,   11360,   11299,   11303,   11359
    1385,   11304,   11308,   11370,   11371,   11303,   11307,   11358,   11359
    1386,   11308,   11312,   11369,   11370,   11307,   11311,   11357,   11358
    1387,   11312,   11288,   11329,   11369,   11311,   11287,   11330,   11357
    1388,   11316,   11315,   11392,   11381,   11329,   11325,   11380,   11369
    1389,   11315,   11314,   11391,   11392,   11325,   11321,   11379,   11380
    1390,   11314,   11313,   11390,   11391,   11321,   11317,   11378,   11379
    1391,   11313,    5306,    5309,   11390,   11317,    5313,    5325,   11378
    1392,   11381,   11392,   11389,   11382,   11369,   11380,   11377,   11370
    1393,   11392,   11391,   11388,   11389,   11380,   11379,   11376,   11377
    1394,   11391,   11390,   11387,   11388,   11379,   11378,   11375,   11376
    1395,   11390,    5309,    5308,   11387,   11378,    5325,    5321,   11375
    1396,   11382,   11389,   11384,   11383,   11370,   11377,   11372,   11371
    1397,   11389,   11388,   11385,   11384,   11377,   11376,   11373,   11372
    1398,   11388,   11387,   11386,   11385,   11376,   11375,   11374,   11373
    1399,   11387,    5308,    5307,   11386,   11375,    5321,    5317,   11374
    1400,    5307,    5301,   11284,   11386,    5317,    5302,   11292,   11374
    1401,   11386,   11284,   11283,   11385,   11374,   11292,   11296,   11373
    1402,   11385,   11283,   11282,   11384,   11373,   11296,   11300,   11372
    1403,   11384,   11282,   11281,   11383,   11372,   11300,   11304,   11371
    1404,   11281,   11280,   11382,   11383,   11304,   11308,   11370,   11371
    1405,   11280,   11279,   11381,   11382,   11308,   11312,   11369,   11370
    1406,   11279,   11278,   11316,   11381,   11312,   11288,   11329,   11369
    1407,   11092,   11032,   11145,   11147,   10612,   10611,   10621,   10626
    1408,   11082,   11092,   11147,   11151,   10613,   10612,   10626,   10627
    1409,   11072,   11082,   11151,   11155,   10614,   10613,   10627,   10622
    1410,   11154,   11062,   11072,   11155,   10625,   10615,   10614,   10622
    1411,   11156,   11052,   11062,   11154,   10624,   10616,   10615,   10625
    1412,   11157,   11042,   11052,   11156,   10623,   10617,   10616,   10624
    1413,    5018,    5003,   11042,   11157,    4491,    4489,   10617,   10623
    1414,   11153,    5028,    5018,   11157,   10633,    4492,    4491,   10623
    1415,   11152,   11153,   11157,   11156,   10632,   10633,   10623,   10624
    1416,   11150,   11152,   11156,   11154,   10631,   10632,   10624,   10625
    1417,   11151,   11150,   11154,   11155,   10627,   10631,   10625,   10622
    1418,   11149,    5038,    5028,   11153,   10630,    4493,    4492,   10633
    1419,   11148,   11149,   11153,   11152,   10629,   10630,   10633,   10632
    1420,   11146,   11148,   11152,   11150,   10628,   10629,   10632,   10631
    1421,   11147,   11146,   11150,   11151,   10626,   10628,   10631,   10627
    1422,   11115,    5008,    5038,   11149,   10618,    4490,    4493,   10630
    1423,   11125,   11115,   11149,   11148,   10619,   10618,   10630,   10629
    1424,   11135,   11125,   11148,   11146,   10620,   10619,   10629,   10628
    1425,   11145,   11135,   11146,   11147,   10621,   10620,   10628,   10626
    1426,   11093,   11033,   11144,   11159,   11092,   11032,   11145,   11147
    1427,   11083,   11093,   11159,   11163,   11082,   11092,   11147,   11151
    1428,   11073,   11083,   11163,   11167,   11072,   11082,   11151,   11155
    1429,   11166,   11063,   11073,   11167,   11154,   11062,   11072,   11155
    1430,   11168,   11053,   11063,   11166,   11156,   11052,   11062,   11154
    1431,   11169,   11043,   11053,   11168,   11157,   11042,   11052,   11156
    1432,    5019,    5002,   11043,   11169,    5018,    5003,   11042,   11157
    1433,   11165,    5029,    5019,   11169,   11153,    5028,    5018,   11157
    1434,   11164,   11165,   11169,   11168,   11152,   11153,   11157,   11156
    1435,   11162,   11164,   11168,   11166,   11150,   11152,   11156,   11154
    1436,   11163,   11162,   11166,   11167,   11151,   11150,   11154,   11155
    1437,   11161,    5039,    5029,   11165,   11149,    5038,    5028,   11153
    1438,   11160,   11161,   11165,   11164,   11148,   11149,   11153,   11152
    1439,   11158,   11160,   11164,   11162,   11146,   11148,   11152,   11150
    1440,   11159,   11158,   11162,   11163,   11147,   11146,   11150,   11151
    1441,   11114,    5009,    5039,   11161,   11115,    5008,    5038,   11149
    1442,   11124,   11114,   11161,   11160,   11125,   11115,   11149,   11148
    1443,   11134,   11124,   11160,   11158,   11135,   11125,   11148,   11146
    1444,   11144,   11134,   11158,   11159,   11145,   11135,   11146,   11147
    1445,   11094,   11034,   11143,   11171,   11093,   11033,   11144,   11159
    1446,   11084,   11094,   11171,   11175,   11083,   11093,   11159,   11163
    1447,   11074,   11084,   11175,   11179,   11073,   11083,   11163,   11167
    1448,   11178,   11064,   11074,   11179,   11166,   11063,   11073,   11167
    1449,   11180,   11054,   11064,   11178,   11168,   11053,   11063,   11166
    1450,   11181,   11044,   11054,   11180,   11169,   11043,   11053,   11168
    1451,    5020,    5001,   11044,   11181,    5019,    5002,   11043,   11169
    1452,   11177,    5030,    5020,   11181,   11165,    5029,    5019,   11169
    1453,   11176,   11177,   11181,   11180,   11164,   11165,   11169,   11168
    1454,   11174,   11176,   11180,   11178,   11162,   11164,   11168,   11166
    1455,   11175,   11174,   11178,   11179,   11163,   11162,   11166,   11167
    1456,   11173,    5040,    5030,   11177,   11161,    5039,    5029,   11165
    1457,   11172,   11173,   11177,   11176,   11160,   11161,   11165,   11164
    1458,   11170,   11172,   11176,   11174,   11158,   11160,   11164,   11162
    1459,   11171,   11170,   11174,   11175,   11159,   11158,   11162,   11163
    1460,   11113,    5010,    5040,   11173,   11114,    5009,    5039,   11161
    1461,   11123,   11113,   11173,   11172,   11124,   11114,   11161,   11160
    1462,   11133,   11123,   11172,   11170,   11134,   11124,   11160,   11158
    1463,   11143,   11133,   11170,   11171,   11144,   11134,   11158,   11159
    1464,   11095,   11035,   11142,   11183,   11094,   11034,   11143,   11171
    1465,   11085,   11095,   11183,   11187,   11084,   11094,   11171,   11175
    1466,   11075,   11085,   11187,   11191,   11074,   11084,   11175,   11179
    1467,   11190,   11065,   11075,   11191,   11178,   11064,   11074,   11179
    1468,   11192,   11055,   11065,   11190,   11180,   11054,   11064,   11178
    1469,   11193,   11045,   11055,   11192,   11181,   11044,   11054,   11180
    1470,    5021,    5000,   11045,   11193,    5020,    5001,   11044,   11181
    1471,   11189,    5031,    5021,   11193,   11177,    5030,    5020,   11181
    1472,   11188,   11189,   11193,   11192,   11176,   11177,   11181,   11180
    1473,   11186,   11188,   11192,   11190,   11174,   11176,   11180,   11178
    1474,   11187,   11186,   11190,   11191,   11175,   11174,   11178,   11179
    1475,   11185,    5041,    5031,   11189,   11173,    5040,    5030,   11177
    1476,   11184,   11185,   11189,   11188,   11172,   11173,   11177,   11176
    1477,   11182,   11184,   11188,   11186,   11170,   11172,   11176,   11174
    1478,   11183,   11182,   11186,   11187,   11171,   11170,   11174,   11175
    1479,   11112,    5011,    5041,   11185,   11113,    5010,    5040,   11173
    1480,   11122,   11112,   11185,   11184,   11123,   11113,   11173,   11172
    1481,   11132,   11122,   11184,   11182,   11133,   11123,   11172,   11170
    1482,   11142,   11132,   11182,   11183,   11143,   11133,   11170,   11171
    1483,   11096,   11036,   11141,   11195,   11095,   11035,   11142,   11183
    1484,   11086,   11096,   11195,   11199,   11085,   11095,   11183,   11187
    1485,   11076,   11086,   11199,   11203,   11075,   11085,   11187,   11191
    1486,   11202,   11066,   11076,   11203,   11190,   11065,   11075,   11191
    1487,   11204,   11056,   11066,   11202,   11192,   11055,   11065,   11190
    1488,   11205,   11046,   11056,   11204,   11193,   11045,   11055,   11192
    1489,    5022,    4999,   11046,   11205,    5021,    5000,   11045,   11193
    1490,   11201,    5032,    5022,   11205,   11189,    5031,    5021,   11193
    1491,   11200,   11201,   11205,   11204,   11188,   11189,   11193,   11192
    1492,   11198,   11200,   11204,   11202,   11186,   11188,   11192,   11190
    1493,   11199,   11198,   11202,   11203,   11187,   11186,   11190,   11191
    1494,   11197,    5042,    5032,   11201,   11185,    5041,    5031,   11189
    1495,   11196,   11197,   11201,   11200,   11184,   11185,   11189,   11188
    1496,   11194,   11196,   11200,   11198,   11182,   11184,   11188,   11186
    1497,   11195,   11194,   11198,   11199,   11183,   11182,   11186,   11187
    1498,   11111,    5012,    5042,   11197,   11112,    5011,    5041,   11185
    1499,   11121,   11111,   11197,   11196,   11122,   11112,   11185,   11184
    1500,   11131,   11121,   11196,   11194,   11132,   11122,   11184,   11182
    1501,   11141,   11131,   11194,   11195,   11142,   11132,   11182,   11183
    1502,   11097,   11037,   11140,   11207,   11096,   11036,   11141,   11195
    1503,   11087,   11097,   11207,   11211,   11086,   11096,   11195,   11199
    1504,   11077,   11087,   11211,   11215,   11076,   11086,   11199,   11203
    1505,   11214,   11067,   11077,   11215,   11202,   11066,   11076,   11203
    1506,   11216,   11057,   11067,   11214,   11204,   11056,   11066,   11202
    1507,   11217,   11047,   11057,   11216,   11205,   11046,   11056,   11204
    1508,    5023,    4998,   11047,   11217,    5022,    4999,   11046,   11205
    1509,   11213,    5033,    5023,   11217,   11201,    5032,    5022,   11205
    1510,   11212,   11213,   11217,   11216,   11200,   11201,   11205,   11204
    1511,   11210,   11212,   11216,   11214,   11198,   11200,   11204,   11202
    1512,   11211,   11210,   11214,   11215,   11199,   11198,   11202,   11203
    1513,   11209,    5043,    5033,   11213,   11197,    5042,    5032,   11201
    1514,   11208,   11209,   11213,   11212,   11196,   11197,   11201,   11200
    1515,   11206,   11208,   11212,   11210,   11194,   11196,   11200,   11198
    1516,   11207,   11206,   11210,   11211,   11195,   11194,   11198,   11199
    1517,   11110,    5013,    5043,   11209,   11111,    5012,    5042,   11197
    1518,   11120,   11110,   11209,   11208,   11121,   11111,   11197,   11196
    1519,   11130,   11120,   11208,   11206,   11131,   11121,   11196,   11194
    1520,   11140,   11130,   11206,   11207,   11141,   11131,   11194,   11195
    1521,   11098,   11038,   11139,   11219,   11097,   11037,   11140,   11207
    1522,   11088,   11098,   11219,   11223,   11087,   11097,   11207,   11211
    1523,   11078,   11088,   11223,   11227,   11077,   11087,   11211,   11215
    1524,   11226,   11068,   11078,   11227,   11214,   11067,   11077,   11215
    1525,   11228,   11058,   11068,   11226,   11216,   11057,   11067,   11214
    1526,   11229,   11048,   11058,   11228,   11217,   11047,   11057,   11216
    1527,    5024,    4997,   11048,   11229,    5023,    4998,   11047,   11217
    1528,   11225,    5034,    5024,   11229,   11213,    5033,    5023,   11217
    1529,   11224,   11225,   11229,   11228,   11212,   11213,   11217,   11216
    1530,   11222,   11224,   11228,   11226,   11210,   11212,   11216,   11214
    1531,   11223,   11222,   11226,   11227,   11211,   11210,   11214,   11215
    1532,   11221,    5044,    5034,   11225,   11209,    5043,    5033,   11213
    1533,   11220,   11221,   11225,   11224,   11208,   11209,   11213,   11212
    1534,   11218,   11220,   11224,   11222,   11206,   11208,   11212,   11210
    1535,   11219,   11218,   11222,   11223,   11207,   11206,   11210,   11211
    1536,   11109,    5014,    5044,   11221,   11110,    5013,    5043,   11209
    1537,   11119,   11109,   11221,   11220,   11120,   11110,   11209,   11208
    1538,   11129,   11119,   11220,   11218,   11130,   11120,   11208,   11206
    1539,   11139,   11129,   11218,   11219,   11140,   11130,   11206,   11207
    1540,   11099,   11039,   11138,   11231,   11098,   11038,   11139,   11219
    1541,   11089,   11099,   11231,   11235,   11088,   11098,   11219,   11223
    1542,   11079,   11089,   11235,   11239,   11078,   11088,   11223,   11227
    1543,   11238,   11069,   11079,   11239,   11226,   11068,   11078,   11227
    1544,   11240,   11059,   11069,   11238,   11228,   11058,   11068,   11226
    1545,   11241,   11049,   11059,   11240,   11229,   11048,   11058,   11228
    1546,    5025,    4996,   11049,   11241,    5024,    4997,   11048,   11229
    1547,   11237,    5035,    5025,   11241,   11225,    5034,    5024,   11229
    1548,   11236,   11237,   11241,   11240,   11224,   11225,   11229,   11228
    1549,   11234,   11236,   11240,   11238,   11222,   11224,   11228,   11226
    1550,   11235,   11234,   11238,   11239,   11223,   11222,   11226,   11227
    1551,   11233,    5045,    5035,   11237,   11221,    5044,    5034,   11225
    1552,   11232,   11233,   11237,   11236,   11220,   11221,   11225,   11224
    1553,   11230,   11232,   11236,   11234,   11218,   11220,   11224,   11222
    1554,   11231,   11230,   11234,   11235,   11219,   11218,   11222,   11223
    1555,   11108,    5015,    5045,   11233,   11109,    5014,    5044,   11221
    1556,   11118,   11108,   11233,   11232,   11119,   11109,   11221,   11220
    1557,   11128,   11118,   11232,   11230,   11129,   11119,   11220,   11218
    1558,   11138,   11128,   11230,   11231,   11139,   11129,   11218,   11219
    1559,   11100,   11040,   11137,   11243,   11099,   11039,   11138,   11231
    1560,   11090,   11100,   11243,   11247,   11089,   11099,   11231,   11235
    1561,   11080,   11090,   11247,   11251,   11079,   11089,   11235,   11239
    1562,   11250,   11070,   11080,   11251,   11238,   11069,   11079,   11239
    1563,   11252,   11060,   11070,   11250,   11240,   11059,   11069,   11238
    1564,   11253,   11050,   11060,   11252,   11241,   11049,   11059,   11240
    1565,    5026,    4995,   11050,   11253,    5025,    4996,   11049,   11241
    1566,   11249,    5036,    5026,   11253,   11237,    5035,    5025,   11241
    1567,   11248,   11249,   11253,   11252,   11236,   11237,   11241,   11240
    1568,   11246,   11248,   11252,   11250,   11234,   11236,   11240,   11238
    1569,   11247,   11246,   11250,   11251,   11235,   11234,   11238,   11239
    1570,   11245,    5046,    5036,   11249,   11233,    5045,    5035,   11237
    1571,   11244,   11245,   11249,   11248,   11232,   11233,   11237,   11236
    1572,   11242,   11244,   11248,   11246,   11230,   11232,   11236,   11234
    1573,   11243,   11242,   11246,   11247,   11231,   11230,   11234,   11235
    1574,   11107,    5016,    5046,   11245,   11108,    5015,    5045,   11233
    1575,   11117,   11107,   11245,   11244,   11118,   11108,   11233,   11232
    1576,   11127,   11117,   11244,   11242,   11128,   11118,   11232,   11230
    1577,   11137,   11127,   11242,   11243,   11138,   11128,   11230,   11231
    1578,   11101,   11041,   11136,   11255,   11100,   11040,   11137,   11243
    1579,   11091,   11101,   11255,   11259,   11090,   11100,   11243,   11247
    1580,   11081,   11091,   11259,   11263,   11080,   11090,   11247,   11251
    1581,   11262,   11071,   11081,   11263,   11250,   11070,   11080,   11251
    1582,   11264,   11061,   11071,   11262,   11252,   11060,   11070,   11250
    1583,   11265,   11051,   11061,   11264,   11253,   11050,   11060,   11252
    1584,    5027,    4994,   11051,   11265,    5026,    4995,   11050,   11253
    1585,   11261,    5037,    5027,   11265,   11249,    5036,    5026,   11253
    1586,   11260,   11261,   11265,   11264,   11248,   11249,   11253,   11252
    1587,   11258,   11260,   11264,   11262,   11246,   11248,   11252,   11250
    1588,   11259,   11258,   11262,   11263,   11247,   11246,   11250,   11251
    1589,   11257,    5047,    5037,   11261,   11245,    5046,    5036,   11249
    1590,   11256,   11257,   11261,   11260,   11244,   11245,   11249,   11248
    1591,   11254,   11256,   11260,   11258,   11242,   11244,   11248,   11246
    1592,   11255,   11254,   11258,   11259,   11243,   11242,   11246,   11247
    1593,   11106,    5017,    5047,   11257,   11107,    5016,    5046,   11245
    1594,   11116,   11106,   11257,   11256,   11117,   11107,   11245,   11244
    1595,   11126,   11116,   11256,   11254,   11127,   11117,   11244,   11242
    1596,   11136,   11126,   11254,   11255,   11137,   11127,   11242,   11243
    1597,   11026,   11025,   11105,   11267,   11101,   11041,   11136,   11255
    1598,   11027,   11026,   11267,   11271,   11091,   11101,   11255,   11259
    1599,   11028,   11027,   11271,   11275,   11081,   11091,   11259,   11263
    1600,   11274,   11029,   11028,   11275,   11262,   11071,   11081,   11263
    1601,   11276,   11030,   11029,   11274,   11264,   11061,   11071,   11262
    1602,   11277,   11031,   11030,   11276,   11265,   11051,   11061,   11264
    1603,    5005,    4993,   11031,   11277,    5027,    4994,   11051,   11265
    1604,   11273,    5006,    5005,   11277,   11261,    5037,    5027,   11265
    1605,   11272,   11273,   11277,   11276,   11260,   11261,   11265,   11264
    1606,   11270,   11272,   11276,   11274,   11258,   11260,   11264,   11262
    1607,   11271,   11270,   11274,   11275,   11259,   11258,   11262,   11263
    1608,   11269,    5007,    5006,   11273,   11257,    5047,    5037,   11261
    1609,   11268,   11269,   11273,   11272,   11256,   11257,   11261,   11260
    1610,   11266,   11268,   11272,   11270,   11254,   11256,   11260,   11258
    1611,   11267,   11266,   11270,   11271,   11255,   11254,   11258,   11259
    1612,   11102,    5004,    5007,   11269,   11106,    5017,    5047,   11257
    1613,   11103,   11102,   11269,   11268,   11116,   11106,   11257,   11256
    1614,   11104,   11103,   11268,   11266,   11126,   11116,   11256,   11254
    1615,   11105,   11104,   11266,   11267,   11136,   11126,   11254,   11255
    1616,   10612,   10611,   10621,   10626,   10752,   10650,   10805,   10821
    1617,   10613,   10612,   10626,   10627,   10736,   10752,   10821,   10825
    1618,   10614,   10613,   10627,   10622,   10720,   10736,   10825,   10829
    1619,   10625,   10615,   10614,   10622,   10830,   10704,   10720,   10829
    1620,   10624,   10616,   10615,   10625,   10831,   10688,   10704,   10830
    1621,   10623,   10617,   10616,   10624,   10832,   10672,   10688,   10831
    1622,    4491,    4489,   10617,   10623,    4569,    4518,   10672,   10832
    1623,   10633,    4492,    4491,   10623,   10828,    4585,    4569,   10832
    1624,   10632,   10633,   10623,   10624,   10827,   10828,   10832,   10831
    1625,   10631,   10632,   10624,   10625,   10826,   10827,   10831,   10830
    1626,   10627,   10631,   10625,   10622,   10825,   10826,   10830,   10829
    1627,   10630,    4493,    4492,   10633,   10824,    4601,    4585,   10828
    1628,   10629,   10630,   10633,   10632,   10823,   10824,   10828,   10827
    1629,   10628,   10629,   10632,   10631,   10822,   10823,   10827,   10826
    1630,   10626,   10628,   10631,   10627,   10821,   10822,   10826,   10825
    1631,   10618,    4490,    4493,   10630,   10757,    4550,    4601,   10824
    1632,   10619,   10618,   10630,   10629,   10773,   10757,   10824,   10823
    1633,   10620,   10619,   10629,   10628,   10789,   10773,   10823,   10822
    1634,   10621,   10620,   10628,   10626,   10805,   10789,   10822,   10821
    1635,   10752,   10650,   10805,   10821,   10751,   10649,   10806,   10833
    1636,   10736,   10752,   10821,   10825,   10735,   10751,   10833,   10837
    1637,   10720,   10736,   10825,   10829,   10719,   10735,   10837,   10841
    1638,   10830,   10704,   10720,   10829,   10842,   10703,   10719,   10841
    1639,   10831,   10688,   10704,   10830,   10843,   10687,   10703,   10842
    1640,   10832,   10672,   10688,   10831,   10844,   10671,   10687,   10843
    1641,    4569,    4518,   10672,   10832,    4568,    4519,   10671,   10844
    1642,   10828,    4585,    4569,   10832,   10840,    4584,    4568,   10844
    1643,   10827,   10828,   10832,   10831,   10839,   10840,   10844,   10843
    1644,   10826,   10827,   10831,   10830,   10838,   10839,   10843,   10842
    1645,   10825,   10826,   10830,   10829,   10837,   10838,   10842,   10841
    1646,   10824,    4601,    4585,   10828,   10836,    4600,    4584,   10840
    1647,   10823,   10824,   10828,   10827,   10835,   10836,   10840,   10839
    1648,   10822,   10823,   10827,   10826,   10834,   10835,   10839,   10838
    1649,   10821,   10822,   10826,   10825,   10833,   10834,   10838,   10837
    1650,   10757,    4550,    4601,   10824,   10758,    4549,    4600,   10836
    1651,   10773,   10757,   10824,   10823,   10774,   10758,   10836,   10835
    1652,   10789,   10773,   10823,   10822,   10790,   10774,   10835,   10834
    1653,   10805,   10789,   10822,   10821,   10806,   10790,   10834,   10833
    1654,   10751,   10649,   10806,   10833,   10750,   10648,   10807,   10845
    1655,   10735,   10751,   10833,   10837,   10734,   10750,   10845,   10849
    1656,   10719,   10735,   10837,   10841,   10718,   10734,   10849,   10853
    1657,   10842,   10703,   10719,   10841,   10854,   10702,   10718,   10853
    1658,   10843,   10687,   10703,   10842,   10855,   10686,   10702,   10854
    1659,   10844,   10671,   10687,   10843,   10856,   10670,   10686,   10855
    1660,    4568,    4519,   10671,   10844,    4567,    4520,   10670,   10856
    1661,   10840,    4584,    4568,   10844,   10852,    4583,    4567,   10856
    1662,   10839,   10840,   10844,   10843,   10851,   10852,   10856,   10855
    1663,   10838,   10839,   10843,   10842,   10850,   10851,   10855,   10854
    1664,   10837,   10838,   10842,   10841,   10849,   10850,   10854,   10853
    1665,   10836,    4600,    4584,   10840,   10848,    4599,    4583,   10852
    1666,   10835,   10836,   10840,   10839,   10847,   10848,   10852,   10851
    1667,   10834,   10835,   10839,   10838,   10846,   10847,   10851,   10850
    1668,   10833,   10834,   10838,   10837,   10845,   10846,   10850,   10849
    1669,   10758,    4549,    4600,   10836,   10759,    4548,    4599,   10848
    1670,   10774,   10758,   10836,   10835,   10775,   10759,   10848,   10847
    1671,   10790,   10774,   10835,   10834,   10791,   10775,   10847,   10846
    1672,   10806,   10790,   10834,   10833,   10807,   10791,   10846,   10845
    1673,   10750,   10648,   10807,   10845,   10749,   10647,   10808,   10857
    1674,   10734,   10750,   10845,   10849,   10733,   10749,   10857,   10861
    1675,   10718,   10734,   10849,   10853,   10717,   10733,   10861,   10865
    1676,   10854,   10702,   10718,   10853,   10866,   10701,   10717,   10865
    1677,   10855,   10686,   10702,   10854,   10867,   10685,   10701,   10866
    1678,   10856,   10670,   10686,   10855,   10868,   10669,   10685,   10867
    1679,    4567,    4520,   10670,   10856,    4566,    4521,   10669,   10868
    1680,   10852,    4583,    4567,   10856,   10864,    4582,    4566,   10868
    1681,   10851,   10852,   10856,   10855,   10863,   10864,   10868,   10867
    1682,   10850,   10851,   10855,   10854,   10862,   10863,   10867,   10866
    1683,   10849,   10850,   10854,   10853,   10861,   10862,   10866,   10865
    1684,   10848,    4599,    4583,   10852,   10860,    4598,    4582,   10864
    1685,   10847,   10848,   10852,   10851,   10859,   10860,   10864,   10863
    1686,   10846,   10847,   10851,   10850,   10858,   10859,   10863,   10862
    1687,   10845,   10846,   10850,   10849,   10857,   10858,   10862,   10861
    1688,   10759,    4548,    4599,   10848,   10760,    4547,    4598,   10860
    1689,   10775,   10759,   10848,   10847,   10776,   10760,   10860,   10859
    1690,   10791,   10775,   10847,   10846,   10792,   10776,   10859,   10858
    1691,   10807,   10791,   10846,   10845,   10808,   10792,   10858,   10857
    1692,   10749,   10647,   10808,   10857,   10748,   10646,   10809,   10869
    1693,   10733,   10749,   10857,   10861,   10732,   10748,   10869,   10873
    1694,   10717,   10733,   10861,   10865,   10716,   10732,   10873,   10877
    1695,   10866,   10701,   10717,   10865,   10878,   10700,   10716,   10877
    1696,   10867,   10685,   10701,   10866,   10879,   10684,   10700,   10878
    1697,   10868,   10669,   10685,   10867,   10880,   10668,   10684,   10879
    1698,    4566,    4521,   10669,   10868,    4565,    4522,   10668,   10880
    1699,   10864,    4582,    4566,   10868,   10876,    4581,    4565,   10880
    1700,   10863,   10864,   10868,   10867,   10875,   10876,   10880,   10879
    1701,   10862,   10863,   10867,   10866,   10874,   10875,   10879,   10878
    1702,   10861,   10862,   10866,   10865,   10873,   10874,   10878,   10877
    1703,   10860,    4598,    4582,   10864,   10872,    4597,    4581,   10876
    1704,   10859,   10860,   10864,   10863,   10871,   10872,   10876,   10875
    1705,   10858,   10859,   10863,   10862,   10870,   10871,   10875,   10874
    1706,   10857,   10858,   10862,   10861,   10869,   10870,   10874,   10873
    1707,   10760,    4547,    4598,   10860,   10761,    4546,    4597,   10872
    1708,   10776,   10760,   10860,   10859,   10777,   10761,   10872,   10871
    1709,   10792,   10776,   10859,   10858,   10793,   10777,   10871,   10870
    1710,   10808,   10792,   10858,   10857,   10809,   10793,   10870,   10869
    1711,   10748,   10646,   10809,   10869,   10747,   10645,   10810,   10881
    1712,   10732,   10748,   10869,   10873,   10731,   10747,   10881,   10885
    1713,   10716,   10732,   10873,   10877,   10715,   10731,   10885,   10889
    1714,   10878,   10700,   10716,   10877,   10890,   10699,   10715,   10889
    1715,   10879,   10684,   10700,   10878,   10891,   10683,   10699,   10890
    1716,   10880,   10668,   10684,   10879,   10892,   10667,   10683,   10891
    1717,    4565,    4522,   10668,   10880,    4564,    4523,   10667,   10892
    1718,   10876,    4581,    4565,   10880,   10888,    4580,    4564,   10892
    1719,   10875,   10876,   10880,   10879,   10887,   10888,   10892,   10891
    1720,   10874,   10875,   10879,   10878,   10886,   10887,   10891,   10890
    1721,   10873,   10874,   10878,   10877,   10885,   10886,   10890,   10889
    1722,   10872,    4597,    4581,   10876,   10884,    4596,    4580,   10888
    1723,   10871,   10872,   10876,   10875,   10883,   10884,   10888,   10887
    1724,   10870,   10871,   10875,   10874,   10882,   10883,   10887,   10886
    1725,   10869,   10870,   10874,   10873,   10881,   10882,   10886,   10885
    1726,   10761,    4546,    4597,   10872,   10762,    4545,    4596,   10884
    1727,   10777,   10761,   10872,   10871,   10778,   10762,   10884,   10883
    1728,   10793,   10777,   10871,   10870,   10794,   10778,   10883,   10882
    1729,   10809,   10793,   10870,   10869,   10810,   10794,   10882,   10881
    1730,   10747,   10645,   10810,   10881,   10746,   10644,   10811,   10893
    1731,   10731,   10747,   10881,   10885,   10730,   10746,   10893,   10897
    1732,   10715,   10731,   10885,   10889,   10714,   10730,   10897,   10901
    1733,   10890,   10699,   10715,   10889,   10902,   10698,   10714,   10901
    1734,   10891,   10683,   10699,   10890,   10903,   10682,   10698,   10902
    1735,   10892,   10667,   10683,   10891,   10904,   10666,   10682,   10903
    1736,    4564,    4523,   10667,   10892,    4563,    4524,   10666,   10904
    1737,   10888,    4580,    4564,   10892,   10900,    4579,    4563,   10904
    1738,   10887,   10888,   10892,   10891,   10899,   10900,   10904,   10903
    1739,   10886,   10887,   10891,   10890,   10898,   10899,   10903,   10902
    1740,   10885,   10886,   10890,   10889,   10897,   10898,   10902,   10901
    1741,   10884,    4596,    4580,   10888,   10896,    4595,    4579,   10900
    1742,   10883,   10884,   10888,   10887,   10895,   10896,   10900,   10899
    1743,   10882,   10883,   10887,   10886,   10894,   10895,   10899,   10898
    1744,   10881,   10882,   10886,   10885,   10893,   10894,   10898,   10897
    1745,   10762,    4545,    4596,   10884,   10763,    4544,    4595,   10896
    1746,   10778,   10762,   10884,   10883,   10779,   10763,   10896,   10895
    1747,   10794,   10778,   10883,   10882,   10795,   10779,   10895,   10894
    1748,   10810,   10794,   10882,   10881,   10811,   10795,   10894,   10893
    1749,   10746,   10644,   10811,   10893,   10745,   10643,   10812,   10905
    1750,   10730,   10746,   10893,   10897,   10729,   10745,   10905,   10909
    1751,   10714,   10730,   10897,   10901,   10713,   10729,   10909,   10913
    1752,   10902,   10698,   10714,   10901,   10914,   10697,   10713,   10913
    1753,   10903,   10682,   10698,   10902,   10915,   10681,   10697,   10914
    1754,   10904,   10666,   10682,   10903,   10916,   10665,   10681,   10915
    1755,    4563,    4524,   10666,   10904,    4562,    4525,   10665,   10916
    1756,   10900,    4579,    4563,   10904,   10912,    4578,    4562,   10916
    1757,   10899,   10900,   10904,   10903,   10911,   10912,   10916,   10915
    1758,   10898,   10899,   10903,   10902,   10910,   10911,   10915,   10914
    1759,   10897,   10898,   10902,   10901,   10909,   10910,   10914,   10913
    1760,   10896,    4595,    4579,   10900,   10908,    4594,    4578,   10912
    1761,   10895,   10896,   10900,   10899,   10907,   10908,   10912,   10911
    1762,   10894,   10895,   10899,   10898,   10906,   10907,   10911,   10910
    1763,   10893,   10894,   10898,   10897,   10905,   10906,   10910,   10909
    1764,   10763,    4544,    4595,   10896,   10764,    4543,    4594,   10908
    1765,   10779,   10763,   10896,   10895,   10780,   10764,   10908,   10907
    1766,   10795,   10779,   10895,   10894,   10796,   10780,   10907,   10906
    1767,   10811,   10795,   10894,   10893,   10812,   10796,   10906,   10905
    1768,   10745,   10643,   10812,   10905,   10744,   10642,   10813,   10917
    1769,   10729,   10745,   10905,   10909,   10728,   10744,   10917,   10921
    1770,   10713,   10729,   10909,   10913,   10712,   10728,   10921,   10925
    1771,   10914,   10697,   10713,   10913,   10926,   10696,   10712,   10925
    1772,   10915,   10681,   10697,   10914,   10927,   10680,   10696,   10926
    1773,   10916,   10665,   10681,   10915,   10928,   10664,   10680,   10927
    1774,    4562,    4525,   10665,   10916,    4561,    4526,   10664,   10928
    1775,   10912,    4578,    4562,   10916,   10924,    4577,    4561,   10928
    1776,   10911,   10912,   10916,   10915,   10923,   10924,   10928,   10927
    1777,   10910,   10911,   10915,   10914,   10922,   10923,   10927,   10926
    1778,   10909,   10910,   10914,   10913,   10921,   10922,   10926,   10925
    1779,   10908,    4594,    4578,   10912,   10920,    4593,    4577,   10924
    1780,   10907,   10908,   10912,   10911,   10919,   10920,   10924,   10923
    1781,   10906,   10907,   10911,   10910,   10918,   10919,   10923,   10922
    1782,   10905,   10906,   10910,   10909,   10917,   10918,   10922,   10921
    1783,   10764,    4543,    4594,   10908,   10765,    4542,    4593,   10920
    1784,   10780,   10764,   10908,   10907,   10781,   10765,   10920,   10919
    1785,   10796,   10780,   10907,   10906,   10797,   10781,   10919,   10918
    1786,   10812,   10796,   10906,   10905,   10813,   10797,   10918,   10917
    1787,   10744,   10642,   10813,   10917,   10743,   10641,   10814,   10929
    1788,   10728,   10744,   10917,   10921,   10727,   10743,   10929,   10933
    1789,   10712,   10728,   10921,   10925,   10711,   10727,   10933,   10937
    1790,   10926,   10696,   10712,   10925,   10938,   10695,   10711,   10937
    1791,   10927,   10680,   10696,   10926,   10939,   10679,   10695,   10938
    1792,   10928,   10664,   10680,   10927,   10940,   10663,   10679,   10939
    1793,    4561,    4526,   10664,   10928,    4560,    4527,   10663,   10940
    1794,   10924,    4577,    4561,   10928,   10936,    4576,    4560,   10940
    1795,   10923,   10924,   10928,   10927,   10935,   10936,   10940,   10939
    1796,   10922,   10923,   10927,   10926,   10934,   10935,   10939,   10938
    1797,   10921,   10922,   10926,   10925,   10933,   10934,   10938,   10937
    1798,   10920,    4593,    4577,   10924,   10932,    4592,    4576,   10936
    1799,   10919,   10920,   10924,   10923,   10931,   10932,   10936,   10935
    1800,   10918,   10919,   10923,   10922,   10930,   10931,   10935,   10934
    1801,   10917,   10918,   10922,   10921,   10929,   10930,   10934,   10933
    1802,   10765,    4542,    4593,   10920,   10766,    4541,    4592,   10932
    1803,   10781,   10765,   10920,   10919,   10782,   10766,   10932,   10931
    1804,   10797,   10781,   10919,   10918,   10798,   10782,   10931,   10930
    1805,   10813,   10797,   10918,   10917,   10814,   10798,   10930,   10929
    1806,   10743,   10641,   10814,   10929,   10742,   10640,   10815,   10941
    1807,   10727,   10743,   10929,   10933,   10726,   10742,   10941,   10945
    1808,   10711,   10727,   10933,   10937,   10710,   10726,   10945,   10949
    1809,   10938,   10695,   10711,   10937,   10950,   10694,   10710,   10949
    1810,   10939,   10679,   10695,   10938,   10951,   10678,   10694,   10950
    1811,   10940,   10663,   10679,   10939,   10952,   10662,   10678,   10951
    1812,    4560,    4527,   10663,   10940,    4559,    4528,   10662,   10952
    1813,   10936,    4576,    4560,   10940,   10948,    4575,    4559,   10952
    1814,   10935,   10936,   10940,   10939,   10947,   10948,   10952,   10951
    1815,   10934,   10935,   10939,   10938,   10946,   10947,   10951,   10950
    1816,   10933,   10934,   10938,   10937,   10945,   10946,   10950,   10949
    1817,   10932,    4592,    4576,   10936,   10944,    4591,    4575,   10948
    1818,   10931,   10932,   10936,   10935,   10943,   10944,   10948,   10947
    1819,   10930,   10931,   10935,   10934,   10942,   10943,   10947,   10946
    1820,   10929,   10930,   10934,   10933,   10941,   10942,   10946,   10945
    1821,   10766,    4541,    4592,   10932,   10767,    4540,    4591,   10944
    1822,   10782,   10766,   10932,   10931,   10783,   10767,   10944,   10943
    1823,   10798,   10782,   10931,   10930,   10799,   10783,   10943,   10942
    1824,   10814,   10798,   10930,   10929,   10815,   10799,   10942,   10941
    1825,   10742,   10640,   10815,   10941,   10741,   10639,   10816,   10953
    1826,   10726,   10742,   10941,   10945,   10725,   10741,   10953,   10957
    1827,   10710,   10726,   10945,   10949,   10709,   10725,   10957,   10961
    1828,   10950,   10694,   10710,   10949,   10962,   10693,   10709,   10961
    1829,   10951,   10678,   10694,   10950,   10963,   10677,   10693,   10962
    1830,   10952,   10662,   10678,   10951,   10964,   10661,   10677,   10963
    1831,    4559,    4528,   10662,   10952,    4558,    4529,   10661,   10964
    1832,   10948,    4575,    4559,   10952,   10960,    4574,    4558,   10964
    1833,   10947,   10948,   10952,   10951,   10959,   10960,   10964,   10963
    1834,   10946,   10947,   10951,   10950,   10958,   10959,   10963,   10962
    1835,   10945,   10946,   10950,   10949,   10957,   10958,   10962,   10961
    1836,   10944,    4591,    4575,   10948,   10956,    4590,    4574,   10960
    1837,   10943,   10944,   10948,   10947,   10955,   10956,   10960,   10959
    1838,   10942,   10943,   10947,   10946,   10954,   10955,   10959,   10958
    1839,   10941,   10942,   10946,   10945,   10953,   10954,   10958,   10957
    1840,   10767,    4540,    4591,   10944,   10768,    4539,    4590,   10956
    1841,   10783,   10767,   10944,   10943,   10784,   10768,   10956,   10955
    1842,   10799,   10783,   10943,   10942,   10800,   10784,   10955,   10954
    1843,   10815,   10799,   10942,   10941,   10816,   10800,   10954,   10953
    1844,   10741,   10639,   10816,   10953,   10740,   10638,   10817,   10965
    1845,   10725,   10741,   10953,   10957,   10724,   10740,   10965,   10969
    1846,   10709,   10725,   10957,   10961,   10708,   10724,   10969,   10973
    1847,   10962,   10693,   10709,   10961,   10974,   10692,   10708,   10973
    1848,   10963,   10677,   10693,   10962,   10975,   10676,   10692,   10974
    1849,   10964,   10661,   10677,   10963,   10976,   10660,   10676,   10975
    1850,    4558,    4529,   10661,   10964,    4557,    4530,   10660,   10976
    1851,   10960,    4574,    4558,   10964,   10972,    4573,    4557,   10976
    1852,   10959,   10960,   10964,   10963,   10971,   10972,   10976,   10975
    1853,   10958,   10959,   10963,   10962,   10970,   10971,   10975,   10974
    1854,   10957,   10958,   10962,   10961,   10969,   10970,   10974,   10973
    1855,   10956,    4590,    4574,   10960,   10968,    4589,    4573,   10972
    1856,   10955,   10956,   10960,   10959,   10967,   10968,   10972,   10971
    1857,   10954,   10955,   10959,   10958,   10966,   10967,   10971,   10970
    1858,   10953,   10954,   10958,   10957,   10965,   10966,   10970,   10969
    1859,   10768,    4539,    4590,   10956,   10769,    4538,    4589,   10968
    1860,   10784,   10768,   10956,   10955,   10785,   10769,   10968,   10967
    1861,   10800,   10784,   10955,   10954,   10801,   10785,   10967,   10966
    1862,   10816,   10800,   10954,   10953,   10817,   10801,   10966,   10965
    1863,   10740,   10638,   10817,   10965,   10739,   10637,   10818,   10977
    1864,   10724,   10740,   10965,   10969,   10723,   10739,   10977,   10981
    1865,   10708,   10724,   10969,   10973,   10707,   10723,   10981,   10985
    1866,   10974,   10692,   10708,   10973,   10986,   10691,   10707,   10985
    1867,   10975,   10676,   10692,   10974,   10987,   10675,   10691,   10986
    1868,   10976,   10660,   10676,   10975,   10988,   10659,   10675,   10987
    1869,    4557,    4530,   10660,   10976,    4556,    4531,   10659,   10988
    1870,   10972,    4573,    4557,   10976,   10984,    4572,    4556,   10988
    1871,   10971,   10972,   10976,   10975,   10983,   10984,   10988,   10987
    1872,   10970,   10971,   10975,   10974,   10982,   10983,   10987,   10986
    1873,   10969,   10970,   10974,   10973,   10981,   10982,   10986,   10985
    1874,   10968,    4589,    4573,   10972,   10980,    4588,    4572,   10984
    1875,   10967,   10968,   10972,   10971,   10979,   10980,   10984,   10983
    1876,   10966,   10967,   10971,   10970,   10978,   10979,   10983,   10982
    1877,   10965,   10966,   10970,   10969,   10977,   10978,   10982,   10981
    1878,   10769,    4538,    4589,   10968,   10770,    4537,    4588,   10980
    1879,   10785,   10769,   10968,   10967,   10786,   10770,   10980,   10979
    1880,   10801,   10785,   10967,   10966,   10802,   10786,   10979,   10978
    1881,   10817,   10801,   10966,   10965,   10818,   10802,   10978,   10977
    1882,   10739,   10637,   10818,   10977,   10738,   10636,   10819,   10989
    1883,   10723,   10739,   10977,   10981,   10722,   10738,   10989,   10993
    1884,   10707,   10723,   10981,   10985,   10706,   10722,   10993,   10997
    1885,   10986,   10691,   10707,   10985,   10998,   10690,   10706,   10997
    1886,   10987,   10675,   10691,   10986,   10999,   10674,   10690,   10998
    1887,   10988,   10659,   10675,   10987,   11000,   10658,   10674,   10999
    1888,    4556,    4531,   10659,   10988,    4555,    4532,   10658,   11000
    1889,   10984,    4572,    4556,   10988,   10996,    4571,    4555,   11000
    1890,   10983,   10984,   10988,   10987,   10995,   10996,   11000,   10999
    1891,   10982,   10983,   10987,   10986,   10994,   10995,   10999,   10998
    1892,   10981,   10982,   10986,   10985,   10993,   10994,   10998,   10997
    1893,   10980,    4588,    4572,   10984,   10992,    4587,    4571,   10996
    1894,   10979,   10980,   10984,   10983,   10991,   10992,   10996,   10995
    1895,   10978,   10979,   10983,   10982,   10990,   10991,   10995,   10994
    1896,   10977,   10978,   10982,   10981,   10989,   10990,   10994,   10993
    1897,   10770,    4537,    4588,   10980,   10771,    4536,    4587,   10992
    1898,   10786,   10770,   10980,   10979,   10787,   10771,   10992,   10991
    1899,   10802,   10786,   10979,   10978,   10803,   10787,   10991,   10990
    1900,   10818,   10802,   10978,   10977,   10819,   10803,   10990,   10989
    1901,   10738,   10636,   10819,   10989,   10737,   10635,   10820,   11001
    1902,   10722,   10738,   10989,   10993,   10721,   10737,   11001,   11005
    1903,   10706,   10722,   10993,   10997,   10705,   10721,   11005,   11009
    1904,   10998,   10690,   10706,   10997,   11010,   10689,   10705,   11009
    1905,   10999,   10674,   10690,   10998,   11011,   10673,   10689,   11010
    1906,   11000,   10658,   10674,   10999,   11012,   10657,   10673,   11011
    1907,    4555,    4532,   10658,   11000,    4554,    4533,   10657,   11012
    1908,   10996,    4571,    4555,   11000,   11008,    4570,    4554,   11012
    1909,   10995,   10996,   11000,   10999,   11007,   11008,   11012,   11011
    1910,   10994,   10995,   10999,   10998,   11006,   11007,   11011,   11010
    1911,   10993,   10994,   10998,   10997,   11005,   11006,   11010,   11009
    1912,   10992,    4587,    4571,   10996,   11004,    4586,    4570,   11008
    1913,   10991,   10992,   10996,   10995,   11003,   11004,   11008,   11007
    1914,   10990,   10991,   10995,   10994,   11002,   11003,   11007,   11006
    1915,   10989,   10990,   10994,   10993,   11001,   11002,   11006,   11005
    1916,   10771,    4536,    4587,   10992,   10772,    4535,    4586,   11004
    1917,   10787,   10771,   10992,   10991,   10788,   10772,   11004,   11003
    1918,   10803,   10787,   10991,   10990,   10804,   10788,   11003,   11002
    1919,   10819,   10803,   10990,   10989,   10820,   10804,   11002,   11001
    1920,   10737,   10635,   10820,   11001,   10656,   10634,   10756,   11013
    1921,   10721,   10737,   11001,   11005,   10655,   10656,   11013,   11017
    1922,   10705,   10721,   11005,   11009,   10654,   10655,   11017,   11021
    1923,   11010,   10689,   10705,   11009,   11022,   10653,   10654,   11021
    1924,   11011,   10673,   10689,   11010,   11023,   10652,   10653,   11022
    1925,   11012,   10657,   10673,   11011,   11024,   10651,   10652,   11023
    1926,    4554,    4533,   10657,   11012,    4551,    4517,   10651,   11024
    1927,   11008,    4570,    4554,   11012,   11020,    4552,    4551,   11024
    1928,   11007,   11008,   11012,   11011,   11019,   11020,   11024,   11023
    1929,   11006,   11007,   11011,   11010,   11018,   11019,   11023,   11022
    1930,   11005,   11006,   11010,   11009,   11017,   11018,   11022,   11021
    1931,   11004,    4586,    4570,   11008,   11016,    4553,    4552,   11020
    1932,   11003,   11004,   11008,   11007,   11015,   11016,   11020,   11019
    1933,   11002,   11003,   11007,   11006,   11014,   11015,   11019,   11018
    1934,   11001,   11002,   11006,   11005,   11013,   11014,   11018,   11017
    1935,   10772,    4535,    4586,   11004,   10753,    4534,    4553,   11016
    1936,   10788,   10772,   11004,   11003,   10754,   10753,   11016,   11015
    1937,   10804,   10788,   11003,   11002,   10755,   10754,   11015,   11014
    1938,   10820,   10804,   11002,   11001,   10756,   10755,   11014,   11013
*ELEMENT, TYPE=COH3D8, ELSET=mortar
    1939,   12229,   12262,   12426,   12425,   12230,   12424,   12594,   12458
    1940,   12262,   12261,   12427,   12426,   12424,   12423,   12595,   12594
    1941,   12261,   12260,   12428,   12427,   12423,   12422,   12596,   12595
    1942,   12260,   12259,   12429,   12428,   12422,   12421,   12597,   12596
    1943,   12259,   12258,   12430,   12429,   12421,   12420,   12598,   12597
    1944,   12258,   12257,   12431,   12430,   12420,   12419,   12599,   12598
    1945,   12257,   12256,   12432,   12431,   12419,   12418,   12600,   12599
    1946,   12256,   12255,   12433,   12432,   12418,   12417,   12601,   12600
    1947,   12255,   12254,   12434,   12433,   12417,   12416,   12602,   12601
    1948,   12254,   12253,   12435,   12434,   12416,   12415,   12603,   12602
    1949,   12253,   12252,   12436,   12435,   12415,   12414,   12604,   12603
    1950,   12252,   12251,   12437,   12436,   12414,   12413,   12605,   12604
    1951,   12251,   12250,   12438,   12437,   12413,   12412,   12606,   12605
    1952,   12250,   12249,   12439,   12438,   12412,   12411,   12607,   12606
    1953,   12249,   12248,   12440,   12439,   12411,   12410,   12608,   12607
    1954,   12248,   12247,   12441,   12440,   12410,   12409,   12609,   12608
    1955,   12247,   12246,   12442,   12441,   12409,   12408,   12610,   12609
    1956,   12246,   12245,   12443,   12442,   12408,   12407,   12611,   12610
    1957,   12245,   12244,   12444,   12443,   12407,   12406,   12612,   12611
    1958,   12244,   12243,   12445,   12444,   12406,   12405,   12613,   12612
    1959,   12243,   12242,   12446,   12445,   12405,   12404,   12614,   12613
    1960,   12242,   12241,   12447,   12446,   12404,   12403,   12615,   12614
    1961,   12241,   12240,   12448,   12447,   12403,   12402,   12616,   12615
    1962,   12240,   12239,   12449,   12448,   12402,   12401,   12617,   12616
    1963,   12239,   12238,   12450,   12449,   12401,   12400,   12618,   12617
    1964,   12238,   12237,   12451,   12450,   12400,   12399,   12619,   12618
    1965,   12237,   12236,   12452,   12451,   12399,   12398,   12620,   12619
    1966,   12236,   12215,   12222,   12452,   12398,   12221,   12223,   12620
    1967,   12230,   12424,   12594,   12458,   12231,   12397,   12567,   12457
    1968,   12424,   12423,   12595,   12594,   12397,   12396,   12568,   12567
    1969,   12423,   12422,   12596,   12595,   12396,   12395,   12569,   12568
    1970,   12422,   12421,   12597,   12596,   12395,   12394,   12570,   12569
    1971,   12421,   12420,   12598,   12597,   12394,   12393,   12571,   12570
    1972,   12420,   12419,   12599,   12598,   12393,   12392,   12572,   12571
    1973,   12419,   12418,   12600,   12599,   12392,   12391,   12573,   12572
    1974,   12418,   12417,   12601,   12600,   12391,   12390,   12574,   12573
    1975,   12417,   12416,   12602,   12601,   12390,   12389,   12575,   12574
    1976,   12416,   12415,   12603,   12602,   12389,   12388,   12576,   12575
    1977,   12415,   12414,   12604,   12603,   12388,   12387,   12577,   12576
    1978,   12414,   12413,   12605,   12604,   12387,   12386,   12578,   12577
    1979,   12413,   12412,   12606,   12605,   12386,   12385,   12579,   12578
    1980,   12412,   12411,   12607,   12606,   12385,   12384,   12580,   12579
    1981,   12411,   12410,   12608,   12607,   12384,   12383,   12581,   12580
    1982,   12410,   12409,   12609,   12608,   12383,   12382,   12582,   12581
    1983,   12409,   12408,   12610,   12609,   12382,   12381,   12583,   12582
    1984,   12408,   12407,   12611,   12610,   12381,   12380,   12584,   12583
    1985,   12407,   12406,   12612,   12611,   12380,   12379,   12585,   12584
    1986,   12406,   12405,   12613,   12612,   12379,   12378,   12586,   12585
    1987,   12405,   12404,   12614,   12613,   12378,   12377,   12587,   12586
    1988,   12404,   12403,   12615,   12614,   12377,   12376,   12588,   12587
    1989,   12403,   12402,   12616,   12615,   12376,   12375,   12589,   12588
    1990,   12402,   12401,   12617,   12616,   12375,   12374,   12590,   12589
    1991,   12401,   12400,   12618,   12617,   12374,   12373,   12591,   12590
    1992,   12400,   12399,   12619,   12618,   12373,   12372,   12592,   12591
    1993,   12399,   12398,   12620,   12619,   12372,   12371,   12593,   12592
    1994,   12398,   12221,   12223,   12620,   12371,   12220,   12224,   12593
    1995,   12231,   12397,   12567,   12457,   12232,   12370,   12540,   12456
    1996,   12397,   12396,   12568,   12567,   12370,   12369,   12541,   12540
    1997,   12396,   12395,   12569,   12568,   12369,   12368,   12542,   12541
    1998,   12395,   12394,   12570,   12569,   12368,   12367,   12543,   12542
    1999,   12394,   12393,   12571,   12570,   12367,   12366,   12544,   12543
    2000,   12393,   12392,   12572,   12571,   12366,   12365,   12545,   12544
    2001,   12392,   12391,   12573,   12572,   12365,   12364,   12546,   12545
    2002,   12391,   12390,   12574,   12573,   12364,   12363,   12547,   12546
    2003,   12390,   12389,   12575,   12574,   12363,   12362,   12548,   12547
    2004,   12389,   12388,   12576,   12575,   12362,   12361,   12549,   12548
    2005,   12388,   12387,   12577,   12576,   12361,   12360,   12550,   12549
    2006,   12387,   12386,   12578,   12577,   12360,   12359,   12551,   12550
    2007,   12386,   12385,   12579,   12578,   12359,   12358,   12552,   12551
    2008,   12385,   12384,   12580,   12579,   12358,   12357,   12553,   12552
    2009,   12384,   12383,   12581,   12580,   12357,   12356,   12554,   12553
    2010,   12383,   12382,   12582,   12581,   12356,   12355,   12555,   12554
    2011,   12382,   12381,   12583,   12582,   12355,   12354,   12556,   12555
    2012,   12381,   12380,   12584,   12583,   12354,   12353,   12557,   12556
    2013,   12380,   12379,   12585,   12584,   12353,   12352,   12558,   12557
    2014,   12379,   12378,   12586,   12585,   12352,   12351,   12559,   12558
    2015,   12378,   12377,   12587,   12586,   12351,   12350,   12560,   12559
    2016,   12377,   12376,   12588,   12587,   12350,   12349,   12561,   12560
    2017,   12376,   12375,   12589,   12588,   12349,   12348,   12562,   12561
    2018,   12375,   12374,   12590,   12589,   12348,   12347,   12563,   12562
    2019,   12374,   12373,   12591,   12590,   12347,   12346,   12564,   12563
    2020,   12373,   12372,   12592,   12591,   12346,   12345,   12565,   12564
    2021,   12372,   12371,   12593,   12592,   12345,   12344,   12566,   12565
    2022,   12371,   12220,   12224,   12593,   12344,   12219,   12225,   12566
    2023,   12232,   12370,   12540,   12456,   12233,   12343,   12513,   12455
    2024,   12370,   12369,   12541,   12540,   12343,   12342,   12514,   12513
    2025,   12369,   12368,   12542,   12541,   12342,   12341,   12515,   12514
    2026,   12368,   12367,   12543,   12542,   12341,   12340,   12516,   12515
    2027,   12367,   12366,   12544,   12543,   12340,   12339,   12517,   12516
    2028,   12366,   12365,   12545,   12544,   12339,   12338,   12518,   12517
    2029,   12365,   12364,   12546,   12545,   12338,   12337,   12519,   12518
    2030,   12364,   12363,   12547,   12546,   12337,   12336,   12520,   12519
    2031,   12363,   12362,   12548,   12547,   12336,   12335,   12521,   12520
    2032,   12362,   12361,   12549,   12548,   12335,   12334,   12522,   12521
    2033,   12361,   12360,   12550,   12549,   12334,   12333,   12523,   12522
    2034,   12360,   12359,   12551,   12550,   12333,   12332,   12524,   12523
    2035,   12359,   12358,   12552,   12551,   12332,   12331,   12525,   12524
    2036,   12358,   12357,   12553,   12552,   12331,   12330,   12526,   12525
    2037,   12357,   12356,   12554,   12553,   12330,   12329,   12527,   12526
    2038,   12356,   12355,   12555,   12554,   12329,   12328,   12528,   12527
    2039,   12355,   12354,   12556,   12555,   12328,   12327,   12529,   12528
    2040,   12354,   12353,   12557,   12556,   12327,   12326,   12530,   12529
    2041,   12353,   12352,   12558,   12557,   12326,   12325,   12531,   12530
    2042,   12352,   12351,   12559,   12558,   12325,   12324,   12532,   12531
    2043,   12351,   12350,   12560,   12559,   12324,   12323,   12533,   12532
    2044,   12350,   12349,   12561,   12560,   12323,   12322,   12534,   12533
    2045,   12349,   12348,   12562,   12561,   12322,   12321,   12535,   12534
    2046,   12348,   12347,   12563,   12562,   12321,   12320,   12536,   12535
    2047,   12347,   12346,   12564,   12563,   12320,   12319,   12537,   12536
    2048,   12346,   12345,   12565,   12564,   12319,   12318,   12538,   12537
    2049,   12345,   12344,   12566,   12565,   12318,   12317,   12539,   12538
    2050,   12344,   12219,   12225,   12566,   12317,   12218,   12226,   12539
    2051,   12233,   12343,   12513,   12455,   12234,   12316,   12486,   12454
    2052,   12343,   12342,   12514,   12513,   12316,   12315,   12487,   12486
    2053,   12342,   12341,   12515,   12514,   12315,   12314,   12488,   12487
    2054,   12341,   12340,   12516,   12515,   12314,   12313,   12489,   12488
    2055,   12340,   12339,   12517,   12516,   12313,   12312,   12490,   12489
    2056,   12339,   12338,   12518,   12517,   12312,   12311,   12491,   12490
    2057,   12338,   12337,   12519,   12518,   12311,   12310,   12492,   12491
    2058,   12337,   12336,   12520,   12519,   12310,   12309,   12493,   12492
    2059,   12336,   12335,   12521,   12520,   12309,   12308,   12494,   12493
    2060,   12335,   12334,   12522,   12521,   12308,   12307,   12495,   12494
    2061,   12334,   12333,   12523,   12522,   12307,   12306,   12496,   12495
    2062,   12333,   12332,   12524,   12523,   12306,   12305,   12497,   12496
    2063,   12332,   12331,   12525,   12524,   12305,   12304,   12498,   12497
    2064,   12331,   12330,   12526,   12525,   12304,   12303,   12499,   12498
    2065,   12330,   12329,   12527,   12526,   12303,   12302,   12500,   12499
    2066,   12329,   12328,   12528,   12527,   12302,   12301,   12501,   12500
    2067,   12328,   12327,   12529,   12528,   12301,   12300,   12502,   12501
    2068,   12327,   12326,   12530,   12529,   12300,   12299,   12503,   12502
    2069,   12326,   12325,   12531,   12530,   12299,   12298,   12504,   12503
    2070,   12325,   12324,   12532,   12531,   12298,   12297,   12505,   12504
    2071,   12324,   12323,   12533,   12532,   12297,   12296,   12506,   12505
    2072,   12323,   12322,   12534,   12533,   12296,   12295,   12507,   12506
    2073,   12322,   12321,   12535,   12534,   12295,   12294,   12508,   12507
    2074,   12321,   12320,   12536,   12535,   12294,   12293,   12509,   12508
    2075,   12320,   12319,   12537,   12536,   12293,   12292,   12510,   12509
    2076,   12319,   12318,   12538,   12537,   12292,   12291,   12511,   12510
    2077,   12318,   12317,   12539,   12538,   12291,   12290,   12512,   12511
    2078,   12317,   12218,   12226,   12539,   12290,   12217,   12227,   12512
    2079,   12234,   12316,   12486,   12454,   12235,   12289,   12459,   12453
    2080,   12316,   12315,   12487,   12486,   12289,   12288,   12460,   12459
    2081,   12315,   12314,   12488,   12487,   12288,   12287,   12461,   12460
    2082,   12314,   12313,   12489,   12488,   12287,   12286,   12462,   12461
    2083,   12313,   12312,   12490,   12489,   12286,   12285,   12463,   12462
    2084,   12312,   12311,   12491,   12490,   12285,   12284,   12464,   12463
    2085,   12311,   12310,   12492,   12491,   12284,   12283,   12465,   12464
    2086,   12310,   12309,   12493,   12492,   12283,   12282,   12466,   12465
    2087,   12309,   12308,   12494,   12493,   12282,   12281,   12467,   12466
    2088,   12308,   12307,   12495,   12494,   12281,   12280,   12468,   12467
    2089,   12307,   12306,   12496,   12495,   12280,   12279,   12469,   12468
    2090,   12306,   12305,   12497,   12496,   12279,   12278,   12470,   12469
    2091,   12305,   12304,   12498,   12497,   12278,   12277,   12471,   12470
    2092,   12304,   12303,   12499,   12498,   12277,   12276,   12472,   12471
    2093,   12303,   12302,   12500,   12499,   12276,   12275,   12473,   12472
    2094,   12302,   12301,   12501,   12500,   12275,   12274,   12474,   12473
    2095,   12301,   12300,   12502,   12501,   12274,   12273,   12475,   12474
    2096,   12300,   12299,   12503,   12502,   12273,   12272,   12476,   12475
    2097,   12299,   12298,   12504,   12503,   12272,   12271,   12477,   12476
    2098,   12298,   12297,   12505,   12504,   12271,   12270,   12478,   12477
    2099,   12297,   12296,   12506,   12505,   12270,   12269,   12479,   12478
    2100,   12296,   12295,   12507,   12506,   12269,   12268,   12480,   12479
    2101,   12295,   12294,   12508,   12507,   12268,   12267,   12481,   12480
    2102,   12294,   12293,   12509,   12508,   12267,   12266,   12482,   12481
    2103,   12293,   12292,   12510,   12509,   12266,   12265,   12483,   12482
    2104,   12292,   12291,   12511,   12510,   12265,   12264,   12484,   12483
    2105,   12291,   12290,   12512,   12511,   12264,   12263,   12485,   12484
    2106,   12290,   12217,   12227,   12512,   12263,   12216,   12228,   12485
    2107,   12235,   12289,   12459,   12453,   12157,   12186,   12188,   12158
    2108,   12289,   12288,   12460,   12459,   12186,   12185,   12189,   12188
    2109,   12288,   12287,   12461,   12460,   12185,   12184,   12190,   12189
    2110,   12287,   12286,   12462,   12461,   12184,   12183,   12191,   12190
    2111,   12286,   12285,   12463,   12462,   12183,   12182,   12192,   12191
    2112,   12285,   12284,   12464,   12463,   12182,   12181,   12193,   12192
    2113,   12284,   12283,   12465,   12464,   12181,   12180,   12194,   12193
    2114,   12283,   12282,   12466,   12465,   12180,   12179,   12195,   12194
    2115,   12282,   12281,   12467,   12466,   12179,   12178,   12196,   12195
    2116,   12281,   12280,   12468,   12467,   12178,   12177,   12197,   12196
    2117,   12280,   12279,   12469,   12468,   12177,   12176,   12198,   12197
    2118,   12279,   12278,   12470,   12469,   12176,   12175,   12199,   12198
    2119,   12278,   12277,   12471,   12470,   12175,   12174,   12200,   12199
    2120,   12277,   12276,   12472,   12471,   12174,   12173,   12201,   12200
    2121,   12276,   12275,   12473,   12472,   12173,   12172,   12202,   12201
    2122,   12275,   12274,   12474,   12473,   12172,   12171,   12203,   12202
    2123,   12274,   12273,   12475,   12474,   12171,   12170,   12204,   12203
    2124,   12273,   12272,   12476,   12475,   12170,   12169,   12205,   12204
    2125,   12272,   12271,   12477,   12476,   12169,   12168,   12206,   12205
    2126,   12271,   12270,   12478,   12477,   12168,   12167,   12207,   12206
    2127,   12270,   12269,   12479,   12478,   12167,   12166,   12208,   12207
    2128,   12269,   12268,   12480,   12479,   12166,   12165,   12209,   12208
    2129,   12268,   12267,   12481,   12480,   12165,   12164,   12210,   12209
    2130,   12267,   12266,   12482,   12481,   12164,   12163,   12211,   12210
    2131,   12266,   12265,   12483,   12482,   12163,   12162,   12212,   12211
    2132,   12265,   12264,   12484,   12483,   12162,   12161,   12213,   12212
    2133,   12264,   12263,   12485,   12484,   12161,   12160,   12214,   12213
    2134,   12263,   12216,   12228,   12485,   12160,   12159,   12187,   12214
    2135,   12159,   15162,   14954,   12187,   12160,   15189,   14960,   12214
    2136,   15162,   15161,   14955,   14954,   15189,   15216,   14987,   14960
    2137,   15161,   15160,   14956,   14955,   15216,   15243,   15014,   14987
    2138,   15160,   15159,   14957,   14956,   15243,   15270,   15041,   15014
    2139,   15159,   15158,   14958,   14957,   15270,   15297,   15068,   15041
    2140,   15158,   15157,   14959,   14958,   15297,   15324,   15095,   15068
    2141,   15157,   15129,   14926,   14959,   15324,   15156,   14927,   15095
    2142,   12160,   15189,   14960,   12214,   12161,   15188,   14961,   12213
    2143,   15189,   15216,   14987,   14960,   15188,   15215,   14988,   14961
    2144,   15216,   15243,   15014,   14987,   15215,   15242,   15015,   14988
    2145,   15243,   15270,   15041,   15014,   15242,   15269,   15042,   15015
    2146,   15270,   15297,   15068,   15041,   15269,   15296,   15069,   15042
    2147,   15297,   15324,   15095,   15068,   15296,   15323,   15096,   15069
    2148,   15324,   15156,   14927,   15095,   15323,   15155,   14928,   15096
    2149,   12161,   15188,   14961,   12213,   12162,   15187,   14962,   12212
    2150,   15188,   15215,   14988,   14961,   15187,   15214,   14989,   14962
    2151,   15215,   15242,   15015,   14988,   15214,   15241,   15016,   14989
    2152,   15242,   15269,   15042,   15015,   15241,   15268,   15043,   15016
    2153,   15269,   15296,   15069,   15042,   15268,   15295,   15070,   15043
    2154,   15296,   15323,   15096,   15069,   15295,   15322,   15097,   15070
    2155,   15323,   15155,   14928,   15096,   15322,   15154,   14929,   15097
    2156,   12162,   15187,   14962,   12212,   12163,   15186,   14963,   12211
    2157,   15187,   15214,   14989,   14962,   15186,   15213,   14990,   14963
    2158,   15214,   15241,   15016,   14989,   15213,   15240,   15017,   14990
    2159,   15241,   15268,   15043,   15016,   15240,   15267,   15044,   15017
    2160,   15268,   15295,   15070,   15043,   15267,   15294,   15071,   15044
    2161,   15295,   15322,   15097,   15070,   15294,   15321,   15098,   15071
    2162,   15322,   15154,   14929,   15097,   15321,   15153,   14930,   15098
    2163,   12163,   15186,   14963,   12211,   12164,   15185,   14964,   12210
    2164,   15186,   15213,   14990,   14963,   15185,   15212,   14991,   14964
    2165,   15213,   15240,   15017,   14990,   15212,   15239,   15018,   14991
    2166,   15240,   15267,   15044,   15017,   15239,   15266,   15045,   15018
    2167,   15267,   15294,   15071,   15044,   15266,   15293,   15072,   15045
    2168,   15294,   15321,   15098,   15071,   15293,   15320,   15099,   15072
    2169,   15321,   15153,   14930,   15098,   15320,   15152,   14931,   15099
    2170,   12164,   15185,   14964,   12210,   12165,   15184,   14965,   12209
    2171,   15185,   15212,   14991,   14964,   15184,   15211,   14992,   14965
    2172,   15212,   15239,   15018,   14991,   15211,   15238,   15019,   14992
    2173,   15239,   15266,   15045,   15018,   15238,   15265,   15046,   15019
    2174,   15266,   15293,   15072,   15045,   15265,   15292,   15073,   15046
    2175,   15293,   15320,   15099,   15072,   15292,   15319,   15100,   15073
    2176,   15320,   15152,   14931,   15099,   15319,   15151,   14932,   15100
    2177,   12165,   15184,   14965,   12209,   12166,   15183,   14966,   12208
    2178,   15184,   15211,   14992,   14965,   15183,   15210,   14993,   14966
    2179,   15211,   15238,   15019,   14992,   15210,   15237,   15020,   14993
    2180,   15238,   15265,   15046,   15019,   15237,   15264,   15047,   15020
    2181,   15265,   15292,   15073,   15046,   15264,   15291,   15074,   15047
    2182,   15292,   15319,   15100,   15073,   15291,   15318,   15101,   15074
    2183,   15319,   15151,   14932,   15100,   15318,   15150,   14933,   15101
    2184,   12166,   15183,   14966,   12208,   12167,   15182,   14967,   12207
    2185,   15183,   15210,   14993,   14966,   15182,   15209,   14994,   14967
    2186,   15210,   15237,   15020,   14993,   15209,   15236,   15021,   14994
    2187,   15237,   15264,   15047,   15020,   15236,   15263,   15048,   15021
    2188,   15264,   15291,   15074,   15047,   15263,   15290,   15075,   15048
    2189,   15291,   15318,   15101,   15074,   15290,   15317,   15102,   15075
    2190,   15318,   15150,   14933,   15101,   15317,   15149,   14934,   15102
    2191,   12167,   15182,   14967,   12207,   12168,   15181,   14968,   12206
    2192,   15182,   15209,   14994,   14967,   15181,   15208,   14995,   14968
    2193,   15209,   15236,   15021,   14994,   15208,   15235,   15022,   14995
    2194,   15236,   15263,   15048,   15021,   15235,   15262,   15049,   15022
    2195,   15263,   15290,   15075,   15048,   15262,   15289,   15076,   15049
    2196,   15290,   15317,   15102,   15075,   15289,   15316,   15103,   15076
    2197,   15317,   15149,   14934,   15102,   15316,   15148,   14935,   15103
    2198,   12168,   15181,   14968,   12206,   12169,   15180,   14969,   12205
    2199,   15181,   15208,   14995,   14968,   15180,   15207,   14996,   14969
    2200,   15208,   15235,   15022,   14995,   15207,   15234,   15023,   14996
    2201,   15235,   15262,   15049,   15022,   15234,   15261,   15050,   15023
    2202,   15262,   15289,   15076,   15049,   15261,   15288,   15077,   15050
    2203,   15289,   15316,   15103,   15076,   15288,   15315,   15104,   15077
    2204,   15316,   15148,   14935,   15103,   15315,   15147,   14936,   15104
    2205,   12169,   15180,   14969,   12205,   12170,   15179,   14970,   12204
    2206,   15180,   15207,   14996,   14969,   15179,   15206,   14997,   14970
    2207,   15207,   15234,   15023,   14996,   15206,   15233,   15024,   14997
    2208,   15234,   15261,   15050,   15023,   15233,   15260,   15051,   15024
    2209,   15261,   15288,   15077,   15050,   15260,   15287,   15078,   15051
    2210,   15288,   15315,   15104,   15077,   15287,   15314,   15105,   15078
    2211,   15315,   15147,   14936,   15104,   15314,   15146,   14937,   15105
    2212,   12170,   15179,   14970,   12204,   12171,   15178,   14971,   12203
    2213,   15179,   15206,   14997,   14970,   15178,   15205,   14998,   14971
    2214,   15206,   15233,   15024,   14997,   15205,   15232,   15025,   14998
    2215,   15233,   15260,   15051,   15024,   15232,   15259,   15052,   15025
    2216,   15260,   15287,   15078,   15051,   15259,   15286,   15079,   15052
    2217,   15287,   15314,   15105,   15078,   15286,   15313,   15106,   15079
    2218,   15314,   15146,   14937,   15105,   15313,   15145,   14938,   15106
    2219,   12171,   15178,   14971,   12203,   12172,   15177,   14972,   12202
    2220,   15178,   15205,   14998,   14971,   15177,   15204,   14999,   14972
    2221,   15205,   15232,   15025,   14998,   15204,   15231,   15026,   14999
    2222,   15232,   15259,   15052,   15025,   15231,   15258,   15053,   15026
    2223,   15259,   15286,   15079,   15052,   15258,   15285,   15080,   15053
    2224,   15286,   15313,   15106,   15079,   15285,   15312,   15107,   15080
    2225,   15313,   15145,   14938,   15106,   15312,   15144,   14939,   15107
    2226,   12172,   15177,   14972,   12202,   12173,   15176,   14973,   12201
    2227,   15177,   15204,   14999,   14972,   15176,   15203,   15000,   14973
    2228,   15204,   15231,   15026,   14999,   15203,   15230,   15027,   15000
    2229,   15231,   15258,   15053,   15026,   15230,   15257,   15054,   15027
    2230,   15258,   15285,   15080,   15053,   15257,   15284,   15081,   15054
    2231,   15285,   15312,   15107,   15080,   15284,   15311,   15108,   15081
    2232,   15312,   15144,   14939,   15107,   15311,   15143,   14940,   15108
    2233,   12173,   15176,   14973,   12201,   12174,   15175,   14974,   12200
    2234,   15176,   15203,   15000,   14973,   15175,   15202,   15001,   14974
    2235,   15203,   15230,   15027,   15000,   15202,   15229,   15028,   15001
    2236,   15230,   15257,   15054,   15027,   15229,   15256,   15055,   15028
    2237,   15257,   15284,   15081,   15054,   15256,   15283,   15082,   15055
    2238,   15284,   15311,   15108,   15081,   15283,   15310,   15109,   15082
    2239,   15311,   15143,   14940,   15108,   15310,   15142,   14941,   15109
    2240,   12174,   15175,   14974,   12200,   12175,   15174,   14975,   12199
    2241,   15175,   15202,   15001,   14974,   15174,   15201,   15002,   14975
    2242,   15202,   15229,   15028,   15001,   15201,   15228,   15029,   15002
    2243,   15229,   15256,   15055,   15028,   15228,   15255,   15056,   15029
    2244,   15256,   15283,   15082,   15055,   15255,   15282,   15083,   15056
    2245,   15283,   15310,   15109,   15082,   15282,   15309,   15110,   15083
    2246,   15310,   15142,   14941,   15109,   15309,   15141,   14942,   15110
    2247,   12175,   15174,   14975,   12199,   12176,   15173,   14976,   12198
    2248,   15174,   15201,   15002,   14975,   15173,   15200,   15003,   14976
    2249,   15201,   15228,   15029,   15002,   15200,   15227,   15030,   15003
    2250,   15228,   15255,   15056,   15029,   15227,   15254,   15057,   15030
    2251,   15255,   15282,   15083,   15056,   15254,   15281,   15084,   15057
    2252,   15282,   15309,   15110,   15083,   15281,   15308,   15111,   15084
    2253,   15309,   15141,   14942,   15110,   15308,   15140,   14943,   15111
    2254,   12176,   15173,   14976,   12198,   12177,   15172,   14977,   12197
    2255,   15173,   15200,   15003,   14976,   15172,   15199,   15004,   14977
    2256,   15200,   15227,   15030,   15003,   15199,   15226,   15031,   15004
    2257,   15227,   15254,   15057,   15030,   15226,   15253,   15058,   15031
    2258,   15254,   15281,   15084,   15057,   15253,   15280,   15085,   15058
    2259,   15281,   15308,   15111,   15084,   15280,   15307,   15112,   15085
    2260,   15308,   15140,   14943,   15111,   15307,   15139,   14944,   15112
    2261,   12177,   15172,   14977,   12197,   12178,   15171,   14978,   12196
    2262,   15172,   15199,   15004,   14977,   15171,   15198,   15005,   14978
    2263,   15199,   15226,   15031,   15004,   15198,   15225,   15032,   15005
    2264,   15226,   15253,   15058,   15031,   15225,   15252,   15059,   15032
    2265,   15253,   15280,   15085,   15058,   15252,   15279,   15086,   15059
    2266,   15280,   15307,   15112,   15085,   15279,   15306,   15113,   15086
    2267,   15307,   15139,   14944,   15112,   15306,   15138,   14945,   15113
    2268,   12178,   15171,   14978,   12196,   12179,   15170,   14979,   12195
    2269,   15171,   15198,   15005,   14978,   15170,   15197,   15006,   14979
    2270,   15198,   15225,   15032,   15005,   15197,   15224,   15033,   15006
    2271,   15225,   15252,   15059,   15032,   15224,   15251,   15060,   15033
    2272,   15252,   15279,   15086,   15059,   15251,   15278,   15087,   15060
    2273,   15279,   15306,   15113,   15086,   15278,   15305,   15114,   15087
    2274,   15306,   15138,   14945,   15113,   15305,   15137,   14946,   15114
    2275,   12179,   15170,   14979,   12195,   12180,   15169,   14980,   12194
    2276,   15170,   15197,   15006,   14979,   15169,   15196,   15007,   14980
    2277,   15197,   15224,   15033,   15006,   15196,   15223,   15034,   15007
    2278,   15224,   15251,   15060,   15033,   15223,   15250,   15061,   15034
    2279,   15251,   15278,   15087,   15060,   15250,   15277,   15088,   15061
    2280,   15278,   15305,   15114,   15087,   15277,   15304,   15115,   15088
    2281,   15305,   15137,   14946,   15114,   15304,   15136,   14947,   15115
    2282,   12180,   15169,   14980,   12194,   12181,   15168,   14981,   12193
    2283,   15169,   15196,   15007,   14980,   15168,   15195,   15008,   14981
    2284,   15196,   15223,   15034,   15007,   15195,   15222,   15035,   15008
    2285,   15223,   15250,   15061,   15034,   15222,   15249,   15062,   15035
    2286,   15250,   15277,   15088,   15061,   15249,   15276,   15089,   15062
    2287,   15277,   15304,   15115,   15088,   15276,   15303,   15116,   15089
    2288,   15304,   15136,   14947,   15115,   15303,   15135,   14948,   15116
    2289,   12181,   15168,   14981,   12193,   12182,   15167,   14982,   12192
    2290,   15168,   15195,   15008,   14981,   15167,   15194,   15009,   14982
    2291,   15195,   15222,   15035,   15008,   15194,   15221,   15036,   15009
    2292,   15222,   15249,   15062,   15035,   15221,   15248,   15063,   15036
    2293,   15249,   15276,   15089,   15062,   15248,   15275,   15090,   15063
    2294,   15276,   15303,   15116,   15089,   15275,   15302,   15117,   15090
    2295,   15303,   15135,   14948,   15116,   15302,   15134,   14949,   15117
    2296,   12182,   15167,   14982,   12192,   12183,   15166,   14983,   12191
    2297,   15167,   15194,   15009,   14982,   15166,   15193,   15010,   14983
    2298,   15194,   15221,   15036,   15009,   15193,   15220,   15037,   15010
    2299,   15221,   15248,   15063,   15036,   15220,   15247,   15064,   15037
    2300,   15248,   15275,   15090,   15063,   15247,   15274,   15091,   15064
    2301,   15275,   15302,   15117,   15090,   15274,   15301,   15118,   15091
    2302,   15302,   15134,   14949,   15117,   15301,   15133,   14950,   15118
    2303,   12183,   15166,   14983,   12191,   12184,   15165,   14984,   12190
    2304,   15166,   15193,   15010,   14983,   15165,   15192,   15011,   14984
    2305,   15193,   15220,   15037,   15010,   15192,   15219,   15038,   15011
    2306,   15220,   15247,   15064,   15037,   15219,   15246,   15065,   15038
    2307,   15247,   15274,   15091,   15064,   15246,   15273,   15092,   15065
    2308,   15274,   15301,   15118,   15091,   15273,   15300,   15119,   15092
    2309,   15301,   15133,   14950,   15118,   15300,   15132,   14951,   15119
    2310,   12184,   15165,   14984,   12190,   12185,   15164,   14985,   12189
    2311,   15165,   15192,   15011,   14984,   15164,   15191,   15012,   14985
    2312,   15192,   15219,   15038,   15011,   15191,   15218,   15039,   15012
    2313,   15219,   15246,   15065,   15038,   15218,   15245,   15066,   15039
    2314,   15246,   15273,   15092,   15065,   15245,   15272,   15093,   15066
    2315,   15273,   15300,   15119,   15092,   15272,   15299,   15120,   15093
    2316,   15300,   15132,   14951,   15119,   15299,   15131,   14952,   15120
    2317,   12185,   15164,   14985,   12189,   12186,   15163,   14986,   12188
    2318,   15164,   15191,   15012,   14985,   15163,   15190,   15013,   14986
    2319,   15191,   15218,   15039,   15012,   15190,   15217,   15040,   15013
    2320,   15218,   15245,   15066,   15039,   15217,   15244,   15067,   15040
    2321,   15245,   15272,   15093,   15066,   15244,   15271,   15094,   15067
    2322,   15272,   15299,   15120,   15093,   15271,   15298,   15121,   15094
    2323,   15299,   15131,   14952,   15120,   15298,   15130,   14953,   15121
    2324,   12186,   15163,   14986,   12188,   12157,   15123,   14925,   12158
    2325,   15163,   15190,   15013,   14986,   15123,   15124,   14924,   14925
    2326,   15190,   15217,   15040,   15013,   15124,   15125,   14923,   14924
    2327,   15217,   15244,   15067,   15040,   15125,   15126,   14922,   14923
    2328,   15244,   15271,   15094,   15067,   15126,   15127,   14921,   14922
    2329,   15271,   15298,   15121,   15094,   15127,   15128,   14920,   14921
    2330,   15298,   15130,   14953,   15121,   15128,   15122,   14919,   14920
********************************** N O D E S E T S **********************************
*NSET, NSET=z_symm
    4490,    4494,    4495,    4496,    4497,    4498,
    4534,    4535,    4536,    4537,    4538,    4539,
    4540,    4541,    4542,    4543,    4544,    4545,
    4546,    4547,    4548,    4549,    4550,    4619,
    4620,    4621,    4622,    4623,    4624,    4625,
    4626,    4627,    4628,    4629,    4630,    4631,
    4632,    4633,    4634,    4635,    4636,    4637,
    4638,    4639,    4640,    4641,    4642,    4643,
    4644,    4645,    4646,    4647,    4648,    4649,
    4650,    4651,    4652,    4653,    4654,    4655,
    4656,    4657,    4658,    4659,    4660,    4661,
    4662,    4663,    4664,    4665,    4666,    4667,
    4668,    4669,    4670,    4671,    4672,    4673,
    4674,    4675,    4676,    4677,    4678,    4679,
    4680,    4681,    4682,    4683,    4684,    4685,
    4686,    5004,    5008,    5009,    5010,    5011,
    5012,    5013,    5014,    5015,    5016,    5017,
    5048,    5049,    5050,    5051,    5052,    5063,
    5064,    5065,    5066,    5067,    5068,    5069,
    5070,    5071,    5072,    5073,    5074,    5075,
    5076,    5077,    5078,    5079,    5080,    5081,
    5082,    5083,    5084,    5085,    5086,    5087,
    5088,    5089,    5090,    5091,    5092,    5093,
    5094,    5095,    5096,    5097,    5098,    5099,
    5100,    5101,    5102,    5306,    5310,    5311,
    5312,    5313,    5326,    5327,    5328,    5329,
    5330,    5335,    5336,    5337,    5338,    5339,
    5340,    5341,    5342,    5343,    5344,    5345,
    5346,    5347,    5348,    5349,    5350,    5459,
    5463,    5464,    5465,    5466,    5467,    5468,
    5469,    5470,    5471,    5472,    5473,    5474,
    5475,    5476,    5477,    5478,    5479,    5532,
    5533,    5534,    5535,    5553,    5554,    5555,
    5556,    5557,    5558,    5559,    5560,    5561,
    5562,    5563,    5564,    5565,    5566,    5567,
    5568,    5569,    5570,    5571,    5572,    5573,
    5574,    5575,    5576,    5577,    5578,    5579,
    5580,    5581,    5582,    5583,    5584,    5585,
    5586,    5587,    5588,    5589,    5590,    5591,
    5592,    5593,    5594,    5595,    5596,    5597,
    5598,    5599,    5600,    5601,    5602,    5603,
    5604,    5605,    5606,    5607,    5608,    5609,
    5610,    5611,    5612,    5613,    5614,    5615,
    5616,    5617,    5618,    5619,    5620,   10618,
   10619,   10620,   10621,   10634,   10753,   10754,
   10755,   10756,   10757,   10758,   10759,   10760,
   10761,   10762,   10763,   10764,   10765,   10766,
   10767,   10768,   10769,   10770,   10771,   10772,
   10773,   10774,   10775,   10776,   10777,   10778,
   10779,   10780,   10781,   10782,   10783,   10784,
   10785,   10786,   10787,   10788,   10789,   10790,
   10791,   10792,   10793,   10794,   10795,   10796,
   10797,   10798,   10799,   10800,   10801,   10802,
   10803,   10804,   10805,   10806,   10807,   10808,
   10809,   10810,   10811,   10812,   10813,   10814,
   10815,   10816,   10817,   10818,   10819,   10820,
   11102,   11103,   11104,   11105,   11106,   11107,
   11108,   11109,   11110,   11111,   11112,   11113,
   11114,   11115,   11116,   11117,   11118,   11119,
   11120,   11121,   11122,   11123,   11124,   11125,
   11126,   11127,   11128,   11129,   11130,   11131,
   11132,   11133,   11134,   11135,   11136,   11137,
   11138,   11139,   11140,   11141,   11142,   11143,
   11144,   11145,   11313,   11314,   11315,   11316,
   11317,   11318,   11319,   11320,   11321,   11322,
   11323,   11324,   11325,   11326,   11327,   11328,
   11329,   11330,   11331,   11332,   11393,   11519,
   11520,   11521,   11522,   11523,   11524,   11525,
   11526,   11527,   11528,   11529,   11530,   11531,
   11532,   11533,   11534,   11535,   11536,   11537,
   11538,   11539,   11540,   11541,   11542,   11543,
   11544,   11545,   11546,   11547,   11548,   11549,
   11550,   11551,   11552,   11553,   11554,   11555,
   11556,   11557,   11558,   11559,   11560,   11561,
   11562,   11563,   11564,   11565,   11566,   11567,
   11568,   11569,   11570,   11571,   11572,   11573,
   11574,   11575,   11576,   11577,   11578,   11579,
   11580,   11581,   11582,   11583,   11584,   11585,
   11586,   11587,   11588,   11589,   11590,   12249,
   12439,   14919,   14926,   14940,   15122,   15129,
   15143,
*NSET, NSET=anchor_left_loading
    4489,    4993,    4994,    4995,    4996,    4997,
    4998,    4999,    5000,    5001,    5002,    5003,
    5301,    5302,    5303,    5304,    5305,   10611,
   10612,   10613,   10614,   10615,   10616,   10617,
   11025,   11026,   11027,   11028,   11029,   11030,
   11031,   11032,   11033,   11034,   11035,   11036,
   11037,   11038,   11039,   11040,   11041,   11042,
   11043,   11044,   11045,   11046,   11047,   11048,
   11049,   11050,   11051,   11052,   11053,   11054,
   11055,   11056,   11057,   11058,   11059,   11060,
   11061,   11062,   11063,   11064,   11065,   11066,
   11067,   11068,   11069,   11070,   11071,   11072,
   11073,   11074,   11075,   11076,   11077,   11078,
   11079,   11080,   11081,   11082,   11083,   11084,
   11085,   11086,   11087,   11088,   11089,   11090,
   11091,   11092,   11093,   11094,   11095,   11096,
   11097,   11098,   11099,   11100,   11101,   11278,
   11279,   11280,   11281,   11282,   11283,   11284,
   11285,   11286,   11287,   11288,   11289,   11290,
   11291,   11292,   11293,   11294,   11295,   11296,
   11297,   11298,   11299,   11300,   11301,   11302,
   11303,   11304,   11305,   11306,   11307,   11308,
   11309,   11310,   11311,   11312,
*NSET, NSET=anchor_load_section
    4993,    5004,    5005,    5006,    5007,    5048,
    5049,    5050,    5051,    5052,    5103,    5104,
    5105,    5106,    5107,    5108,    5289,    5290,
    5291,    5292,    5293,    5294,    5295,    5296,
    5297,    5298,    5299,    5300,   11025,   11026,
   11027,   11028,   11029,   11030,   11031,   11102,
   11103,   11104,   11105,   11266,   11267,   11268,
   11269,   11270,   11271,   11272,   11273,   11274,
   11275,   11276,   11277,
********************************** S I D E S E T S **********************************
*ELSET, ELSET=mortar_to_concrete_S3
    1939,    1940,    1941,    1942,    1943,    1944,    1945,    1946,    1947,    1948,
    1949,    1950,    1951,    1952,    1953,    1954,    1955,    1956,    1957,    1958,
    1959,    1960,    1961,    1962,    1963,    1964,    1965,    1966,    1967,    1968,
    1969,    1970,    1971,    1972,    1973,    1974,    1975,    1976,    1977,    1978,
    1979,    1980,    1981,    1982,    1983,    1984,    1985,    1986,    1987,    1988,
    1989,    1990,    1991,    1992,    1993,    1994,    1995,    1996,    1997,    1998,
    1999,    2000,    2001,    2002,    2003,    2004,    2005,    2006,    2007,    2008,
    2009,    2010,    2011,    2012,    2013,    2014,    2015,    2016,    2017,    2018,
    2019,    2020,    2021,    2022,    2023,    2024,    2025,    2026,    2027,    2028,
    2029,    2030,    2031,    2032,    2033,    2034,    2035,    2036,    2037,    2038,
    2039,    2040,    2041,    2042,    2043,    2044,    2045,    2046,    2047,    2048,
    2049,    2050,    2051,    2052,    2053,    2054,    2055,    2056,    2057,    2058,
    2059,    2060,    2061,    2062,    2063,    2064,    2065,    2066,    2067,    2068,
    2069,    2070,    2071,    2072,    2073,    2074,    2075,    2076,    2077,    2078,
    2079,    2080,    2081,    2082,    2083,    2084,    2085,    2086,    2087,    2088,
    2089,    2090,    2091,    2092,    2093,    2094,    2095,    2096,    2097,    2098,
    2099,    2100,    2101,    2102,    2103,    2104,    2105,    2106,    2107,    2108,
    2109,    2110,    2111,    2112,    2113,    2114,    2115,    2116,    2117,    2118,
    2119,    2120,    2121,    2122,    2123,    2124,    2125,    2126,    2127,    2128,
    2129,    2130,    2131,    2132,    2133,    2134,    2135,    2136,    2137,    2138,
    2139,    2140,    2141,    2142,    2143,    2144,    2145,    2146,    2147,    2148,
    2149,    2150,    2151,    2152,    2153,    2154,    2155,    2156,    2157,    2158,
    2159,    2160,    2161,    2162,    2163,    2164,    2165,    2166,    2167,    2168,
    2169,    2170,    2171,    2172,    2173,    2174,    2175,    2176,    2177,    2178,
    2179,    2180,    2181,    2182,    2183,    2184,    2185,    2186,    2187,    2188,
    2189,    2190,    2191,    2192,    2193,    2194,    2195,    2196,    2197,    2198,
    2199,    2200,    2201,    2202,    2203,    2204,    2205,    2206,    2207,    2208,
    2209,    2210,    2211,    2212,    2213,    2214,    2215,    2216,    2217,    2218,
    2219,    2220,    2221,    2222,    2223,    2224,    2225,    2226,    2227,    2228,
    2229,    2230,    2231,    2232,    2233,    2234,    2235,    2236,    2237,    2238,
    2239,    2240,    2241,    2242,    2243,    2244,    2245,    2246,    2247,    2248,
    2249,    2250,    2251,    2252,    2253,    2254,    2255,    2256,    2257,    2258,
    2259,    2260,    2261,    2262,    2263,    2264,    2265,    2266,    2267,    2268,
    2269,    2270,    2271,    2272,    2273,    2274,    2275,    2276,    2277,    2278,
    2279,    2280,    2281,    2282,    2283,    2284,    2285,    2286,    2287,    2288,
    2289,    2290,    2291,    2292,    2293,    2294,    2295,    2296,    2297,    2298,
    2299,    2300,    2301,    2302,    2303,    2304,    2305,    2306,    2307,    2308,
    2309,    2310,    2311,    2312,    2313,    2314,    2315,    2316,    2317,    2318,
    2319,    2320,    2321,    2322,    2323,    2324,    2325,    2326,    2327,    2328,
    2329,    2330
*SURFACE, NAME=mortar_to_concrete
mortar_to_concrete_S3, S3
*ELSET, ELSET=mortar_to_anchor_S5
    1939,    1940,    1941,    1942,    1943,    1944,    1945,    1946,    1947,    1948,
    1949,    1950,    1951,    1952,    1953,    1954,    1955,    1956,    1957,    1958,
    1959,    1960,    1961,    1962,    1963,    1964,    1965,    1966,    1967,    1968,
    1969,    1970,    1971,    1972,    1973,    1974,    1975,    1976,    1977,    1978,
    1979,    1980,    1981,    1982,    1983,    1984,    1985,    1986,    1987,    1988,
    1989,    1990,    1991,    1992,    1993,    1994,    1995,    1996,    1997,    1998,
    1999,    2000,    2001,    2002,    2003,    2004,    2005,    2006,    2007,    2008,
    2009,    2010,    2011,    2012,    2013,    2014,    2015,    2016,    2017,    2018,
    2019,    2020,    2021,    2022,    2023,    2024,    2025,    2026,    2027,    2028,
    2029,    2030,    2031,    2032,    2033,    2034,    2035,    2036,    2037,    2038,
    2039,    2040,    2041,    2042,    2043,    2044,    2045,    2046,    2047,    2048,
    2049,    2050,    2051,    2052,    2053,    2054,    2055,    2056,    2057,    2058,
    2059,    2060,    2061,    2062,    2063,    2064,    2065,    2066,    2067,    2068,
    2069,    2070,    2071,    2072,    2073,    2074,    2075,    2076,    2077,    2078,
    2079,    2080,    2081,    2082,    2083,    2084,    2085,    2086,    2087,    2088,
    2089,    2090,    2091,    2092,    2093,    2094,    2095,    2096,    2097,    2098,
    2099,    2100,    2101,    2102,    2103,    2104,    2105,    2106,    2107,    2108,
    2109,    2110,    2111,    2112,    2113,    2114,    2115,    2116,    2117,    2118,
    2119,    2120,    2121,    2122,    2123,    2124,    2125,    2126,    2127,    2128,
    2129,    2130,    2131,    2132,    2133,    2134,    2135,    2136,    2137,    2138,
    2139,    2140,    2141,    2142,    2143,    2144,    2145,    2146,    2147,    2148,
    2149,    2150,    2151,    2152,    2153,    2154,    2155,    2156,    2157,    2158,
    2159,    2160,    2161,    2162,    2163,    2164,    2165,    2166,    2167,    2168,
    2169,    2170,    2171,    2172,    2173,    2174,    2175,    2176,    2177,    2178,
    2179,    2180,    2181,    2182,    2183,    2184,    2185,    2186,    2187,    2188,
    2189,    2190,    2191,    2192,    2193,    2194,    2195,    2196,    2197,    2198,
    2199,    2200,    2201,    2202,    2203,    2204,    2205,    2206,    2207,    2208,
    2209,    2210,    2211,    2212,    2213,    2214,    2215,    2216,    2217,    2218,
    2219,    2220,    2221,    2222,    2223,    2224,    2225,    2226,    2227,    2228,
    2229,    2230,    2231,    2232,    2233,    2234,    2235,    2236,    2237,    2238,
    2239,    2240,    2241,    2242,    2243,    2244,    2245,    2246,    2247,    2248,
    2249,    2250,    2251,    2252,    2253,    2254,    2255,    2256,    2257,    2258,
    2259,    2260,    2261,    2262,    2263,    2264,    2265,    2266,    2267,    2268,
    2269,    2270,    2271,    2272,    2273,    2274,    2275,    2276,    2277,    2278,
    2279,    2280,    2281,    2282,    2283,    2284,    2285,    2286,    2287,    2288,
    2289,    2290,    2291,    2292,    2293,    2294,    2295,    2296,    2297,    2298,
    2299,    2300,    2301,    2302,    2303,    2304,    2305,    2306,    2307,    2308,
    2309,    2310,    2311,    2312,    2313,    2314,    2315,    2316,    2317,    2318,
    2319,    2320,    2321,    2322,    2323,    2324,    2325,    2326,    2327,    2328,
    2329,    2330
*SURFACE, NAME=mortar_to_anchor
mortar_to_anchor_S5, S5
*ELSET, ELSET=anchor_to_mortar_S3
      16,      17,      18,      19,      35,      36,      37,      38,      54,      55,
      56,      57,      73,      74,      75,      76,      92,      93,      94,      95,
     111,     112,     113,     114,     130,     131,     132,     133,     149,     150,
     151,     152,     168,     169,     170,     171,     187,     188,     189,     190,
     206,     207,     208,     209,     225,     226,     227,     228,     244,     245,
     246,     247,     263,     264,     265,     266,     282,     283,     284,     285,
     301,     302,     303,     304,     320,     321,     322,     323,     339,     340,
     341,     342,     970,     971,     972,     989,     990,     991,    1008,    1009,
    1010,    1027,    1028,    1029,    1046,    1047,    1048,    1065,    1066,    1067,
    1084,    1085,    1086,    1103,    1104,    1105,    1122,    1123,    1124,    1141,
    1142,    1143,    1160,    1161,    1162,    1179,    1180,    1181,    1198,    1199,
    1200,    1217,    1218,    1219,    1236,    1237,    1238,    1255,    1256,    1257,
    1274,    1275,    1276,    1293,    1294,    1295
*ELSET, ELSET=anchor_to_mortar_S4
       1,       2,       3,      20,      21,      22,      39,      40,      41,      58,
      59,      60,      77,      78,      79,      96,      97,      98,     115,     116,
     117,     134,     135,     136,     153,     154,     155,     172,     173,     174,
     191,     192,     193,     210,     211,     212,     229,     230,     231,     248,
     249,     250,     267,     268,     269,     286,     287,     288,     305,     306,
     307,     324,     325,     326,     973,     974,     975,     976,     992,     993,
     994,     995,    1011,    1012,    1013,    1014,    1030,    1031,    1032,    1033,
    1049,    1050,    1051,    1052,    1068,    1069,    1070,    1071,    1087,    1088,
    1089,    1090,    1106,    1107,    1108,    1109,    1125,    1126,    1127,    1128,
    1144,    1145,    1146,    1147,    1163,    1164,    1165,    1166,    1182,    1183,
    1184,    1185,    1201,    1202,    1203,    1204,    1220,    1221,    1222,    1223,
    1239,    1240,    1241,    1242,    1258,    1259,    1260,    1261,    1277,    1278,
    1279,    1280,    1296,    1297,    1298,    1299
*SURFACE, NAME=anchor_to_mortar
anchor_to_mortar_S3, S3
anchor_to_mortar_S4, S4
